User:   thorkong@node030.cluster
Date:   Mon Oct 17 14:07:09 2022
Arch:   x86_64
Pid:    16359
Python: 3.10.5
gpaw:   /groups/kemi/thorkong/miniconda3/envs/gpaw22/lib/python3.10/site-packages/gpaw
_gpaw:  /groups/kemi/thorkong/miniconda3/envs/gpaw22/lib/python3.10/site-packages/
        _gpaw.cpython-310-x86_64-linux-gnu.so
ase:    /groups/kemi/thorkong/miniconda3/envs/gpaw22/lib/python3.10/site-packages/ase (version 3.22.1)
numpy:  /groups/kemi/thorkong/miniconda3/envs/gpaw22/lib/python3.10/site-packages/numpy (version 1.23.0)
scipy:  /groups/kemi/thorkong/miniconda3/envs/gpaw22/lib/python3.10/site-packages/scipy (version 1.8.1)
units:  Angstrom and eV
cores: 32
OpenMP: True
OMP_NUM_THREADS: 1

Input parameters:
  basis: dzp
  kpts: [4 4 1]
  mode: {ecut: 600.0,
         name: pw}
  xc: BEEF-vdW

System changes: positions, numbers, cell, pbc, initial_charges, initial_magmoms

Initialize ...

Cu-setup:
  name: Copper
  id: f1c4d45d90492f1bbfdcb091e8418fdf
  Z: 29.0
  valence: 11
  core: 18
  charge: 0.0
  file: /groups/kemi/thorkong/miniconda3/envs/gpaw22/share/gpaw/Cu.PBE.gz
  compensation charges: gauss, rc=0.33, lmax=2
  cutoffs: 2.06(filt), 2.43(core),
  valence states:
                energy  radius
    4s(1.00)    -4.609   1.164
    4p(0.00)    -0.698   1.164
    3d(10.00)    -5.039   1.058
    *s          22.603   1.164
    *p          26.513   1.164
    *d          22.172   1.058

  LCAO basis set for Cu:
    Name: dzp
    File: /groups/kemi/thorkong/miniconda3/envs/gpaw22/share/gpaw/Cu.dzp.basis.gz
    Number of radial functions: 5
    Number of spherical harmonics: 15
      l=0, rc=8.9688 Bohr: 4s-sz confined orbital
      l=2, rc=5.1719 Bohr: 3d-sz confined orbital
      l=0, rc=5.3281 Bohr: 4s-dz split-valence wave
      l=2, rc=3.1406 Bohr: 3d-dz split-valence wave
      l=1, rc=8.9688 Bohr: p-type Gaussian polarization

Cl-setup:
  name: Chlorine
  id: 726897f06f34e53cf8e33b5885a02604
  Z: 17.0
  valence: 7
  core: 10
  charge: 0.0
  file: /groups/kemi/thorkong/miniconda3/envs/gpaw22/share/gpaw/Cl.PBE.gz
  compensation charges: gauss, rc=0.25, lmax=2
  cutoffs: 1.40(filt), 1.49(core),
  valence states:
                energy  radius
    3s(2.00)   -20.689   0.794
    3p(5.00)    -8.594   0.794
    *s           6.523   0.794
    *p          18.617   0.794
    *d           0.000   0.794

  LCAO basis set for Cl:
    Name: dzp
    File: /groups/kemi/thorkong/miniconda3/envs/gpaw22/share/gpaw/Cl.dzp.basis.gz
    Number of radial functions: 5
    Number of spherical harmonics: 13
      l=0, rc=5.1719 Bohr: 3s-sz confined orbital
      l=1, rc=6.2656 Bohr: 3p-sz confined orbital
      l=0, rc=2.8281 Bohr: 3s-dz split-valence wave
      l=1, rc=3.5156 Bohr: 3p-dz split-valence wave
      l=2, rc=6.2656 Bohr: d-type Gaussian polarization

Reference energy: -2632037.589752

Spin-paired calculation

Convergence criteria:
 Maximum [total energy] change in last 3 cyles: 0.0005 eV / electron
 Maximum integral of absolute [dens]ity change: 0.0001 electrons / valence electron
 Maximum integral of absolute [eigenst]ate change: 4e-08 eV^2 / valence electron
 Maximum number of scf [iter]ations: 333
 (Square brackets indicate name in SCF output, whereas a 'c' in
 the SCF output indicates the quantity has converged.)

Symmetries present (total): 1

  ( 1  0  0)
  ( 0  1  0)
  ( 0  0  1)

16 k-points: 4 x 4 x 1 Monkhorst-Pack grid
8 k-points in the irreducible part of the Brillouin zone
       k-points in crystal coordinates                weights
   0:     0.12500000   -0.37500000    0.00000000          2/16
   1:     0.12500000   -0.12500000    0.00000000          2/16
   2:     0.12500000    0.12500000    0.00000000          2/16
   3:     0.12500000    0.37500000    0.00000000          2/16
   4:     0.37500000   -0.37500000    0.00000000          2/16
   5:     0.37500000   -0.12500000    0.00000000          2/16
   6:     0.37500000    0.12500000    0.00000000          2/16
   7:     0.37500000    0.37500000    0.00000000          2/16

Wave functions: Plane wave expansion
  Cutoff energy: 600.000 eV
  Number of coefficients (min, max): 54614, 54705
  Pulay-stress correction: 0.000000 eV/Ang^3 (de/decut=0.000000)
  Using FFTW library
  ScaLapack parameters: grid=2x2, blocksize=64
  Wavefunction extrapolation:
    Improved wavefunction reuse through dual PAW basis

Occupation numbers: Fermi-Dirac: width=0.1000 eV

Eigensolver
   Davidson(niter=2)

Densities:
  Coarse grid: 45*45*175 grid
  Fine grid: 90*90*350 grid
  Total Charge: 0.000000

Density mixing:
  Method: separate
  Backend: pulay
  Linear mixing parameter: 0.05
  Mixing with 5 old densities
  Damping of long wave oscillations: 50

Hamiltonian:
  XC and Coulomb potentials evaluated on a 90*90*350 grid
  Using the BEEF-vdW Exchange-Correlation functional
  External potential:
    NoExternalPotential

XC parameters: BEEF-vdW with 2 nearest neighbor stencil

Total number of cores used: 32
Parallelization over k-points: 8
Domain decomposition: 1 x 1 x 4
                      2 x 2 x 8 (xc only)

Number of atoms: 70
Number of atomic orbitals: 1018
Number of bands in calculation: 428
Number of valence electrons: 706
Bands to converge: occupied

... initialized

Initializing position-dependent things.

Density initialized from atomic densities
Creating initial wave functions:
  428 bands from LCAO basis set

                     Cl     Cl     Cl

                 Cl    Cl     Cl
            Cl          CCl   Cu     Cu
                   Cu     Cu    Cu
               Cu    Cu     Cu
                    Cu     Cu    Cu
                Cu    Cu    Cu
           Cu    Cu     Cu
                Cu     Cu    Cu
            Cu    Cu     Cu
       Cu     Cu        Cu    Cu     Cu
                   CCu    Cu    Cu
               Cu    Cu     Cu
                    Cu     Cu    Cu
                Cu    Cu    Cu
           Cu    Cu     Cu
                Cu     Cu    Cu
            Cu    Cu     Cu
       Cu     Cu   CCu          Cl
              Cl     Cl     Cl
               Cl
         Cl            Cl

Positions:
   0 Cu     2.884162   -0.011729   10.033678    ( 0.0000,  0.0000,  0.0000)
   1 Cu     4.175487    2.207390    9.968025    ( 0.0000,  0.0000,  0.0000)
   2 Cu     0.268779    0.005327   10.035957    ( 0.0000,  0.0000,  0.0000)
   3 Cu     1.563079    2.250160   10.040939    ( 0.0000,  0.0000,  0.0000)
   4 Cu     2.905835    3.013667   12.132731    ( 0.0000,  0.0000,  0.0000)
   5 Cu     1.587256    0.751197   12.155983    ( 0.0000,  0.0000,  0.0000)
   6 Cu     5.501600    3.021336   12.124235    ( 0.0000,  0.0000,  0.0000)
   7 Cu     4.203724    0.772150   12.120007    ( 0.0000,  0.0000,  0.0000)
   8 Cu     5.509809    1.511263   14.273560    ( 0.0000,  0.0000,  0.0000)
   9 Cu     6.817749    3.779201   14.272965    ( 0.0000,  0.0000,  0.0000)
  10 Cu     2.895657    1.507106   14.282845    ( 0.0000,  0.0000,  0.0000)
  11 Cu     4.204745    3.779097   14.275593    ( 0.0000,  0.0000,  0.0000)
  12 Cu     2.898323   -0.006205   16.439255    ( 0.0000,  0.0000,  0.0000)
  13 Cu     4.202828    2.263486   16.411249    ( 0.0000,  0.0000,  0.0000)
  14 Cu     0.271173   -0.001683   16.415015    ( 0.0000,  0.0000,  0.0000)
  15 Cu     1.580207    2.267720   16.418056    ( 0.0000,  0.0000,  0.0000)
  16 Cu     2.898773    3.019517   18.534881    ( 0.0000,  0.0000,  0.0000)
  17 Cu     1.574509    0.759578   18.535562    ( 0.0000,  0.0000,  0.0000)
  18 Cu     5.517461    3.017381   18.557838    ( 0.0000,  0.0000,  0.0000)
  19 Cu     4.218777    0.769327   18.565915    ( 0.0000,  0.0000,  0.0000)
  20 Cu     5.482458    1.472743   20.721328    ( 0.0000,  0.0000,  0.0000)
  21 Cu     6.840691    3.826186   20.718062    ( 0.0000,  0.0000,  0.0000)
  22 Cu     2.872766    1.512688   20.651496    ( 0.0000,  0.0000,  0.0000)
  23 Cu     4.179191    3.794081   20.647081    ( 0.0000,  0.0000,  0.0000)
  24 Cu     5.533098    4.559222    9.954112    ( 0.0000,  0.0000,  0.0000)
  25 Cu     2.867968    4.534051   10.029210    ( 0.0000,  0.0000,  0.0000)
  26 Cu     4.213127    5.276205   12.126541    ( 0.0000,  0.0000,  0.0000)
  27 Cu     6.799507    5.268601   12.115394    ( 0.0000,  0.0000,  0.0000)
  28 Cu     8.121886    6.047639   14.244202    ( 0.0000,  0.0000,  0.0000)
  29 Cu     5.516666    6.046671   14.278211    ( 0.0000,  0.0000,  0.0000)
  30 Cu     5.511110    4.531825   16.410270    ( 0.0000,  0.0000,  0.0000)
  31 Cu     2.888634    4.532926   16.406558    ( 0.0000,  0.0000,  0.0000)
  32 Cu     4.204789    5.283723   18.534523    ( 0.0000,  0.0000,  0.0000)
  33 Cu     6.814487    5.265823   18.565627    ( 0.0000,  0.0000,  0.0000)
  34 Cu     8.131354    6.045561   20.650058    ( 0.0000,  0.0000,  0.0000)
  35 Cu     5.501317    6.065983   20.648502    ( 0.0000,  0.0000,  0.0000)
  36 Cu     5.515639   -0.030915   10.037620    ( 0.0000,  0.0000,  0.0000)
  37 Cu     6.838300    2.241957   10.038361    ( 0.0000,  0.0000,  0.0000)
  38 Cu     8.121401    3.021170   12.150082    ( 0.0000,  0.0000,  0.0000)
  39 Cu     6.815400    0.755845   12.149679    ( 0.0000,  0.0000,  0.0000)
  40 Cu     8.132578    1.510559   14.278234    ( 0.0000,  0.0000,  0.0000)
  41 Cu     9.440817    3.775125   14.268637    ( 0.0000,  0.0000,  0.0000)
  42 Cu     5.504098   -0.004613   16.403245    ( 0.0000,  0.0000,  0.0000)
  43 Cu     6.816730    2.264183   16.407976    ( 0.0000,  0.0000,  0.0000)
  44 Cu     8.113114    3.026556   18.553628    ( 0.0000,  0.0000,  0.0000)
  45 Cu     6.806143    0.763216   18.553497    ( 0.0000,  0.0000,  0.0000)
  46 Cu     8.148557    1.500971   20.654047    ( 0.0000,  0.0000,  0.0000)
  47 Cu     9.453486    3.785452   20.645604    ( 0.0000,  0.0000,  0.0000)
  48 Cu     8.143342    4.522704   10.030314    ( 0.0000,  0.0000,  0.0000)
  49 Cu     9.444142    5.279553   12.148158    ( 0.0000,  0.0000,  0.0000)
  50 Cu    10.750397    6.043904   14.266863    ( 0.0000,  0.0000,  0.0000)
  51 Cu     8.125450    4.536072   16.403731    ( 0.0000,  0.0000,  0.0000)
  52 Cu     9.432612    5.289470   18.528114    ( 0.0000,  0.0000,  0.0000)
  53 Cu    10.748665    6.030225   20.646267    ( 0.0000,  0.0000,  0.0000)
  54 Cl     6.147134    2.664301   22.667231    ( 0.0000,  0.0000,  0.0000)
  55 Cl     4.853098    3.366848    8.014863    ( 0.0000,  0.0000,  0.0000)
  56 Cl    10.101076    4.907838   23.055936    ( 0.0000,  0.0000,  0.0000)
  57 Cl     0.915929    1.127744    7.628448    ( 0.0000,  0.0000,  0.0000)
  58 Cl     8.857645    5.743262    7.623330    ( 0.0000,  0.0000,  0.0000)
  59 Cl     2.077612    0.292715   23.096412    ( 0.0000,  0.0000,  0.0000)
  60 Cl     4.840254    4.930032   23.057792    ( 0.0000,  0.0000,  0.0000)
  61 Cl     6.176970    1.105521    7.627990    ( 0.0000,  0.0000,  0.0000)
  62 Cl     3.525825    5.890548    7.624209    ( 0.0000,  0.0000,  0.0000)
  63 Cl     7.377612    0.192715   23.096412    ( 0.0000,  0.0000,  0.0000)
  64 Cl     3.535671    2.617828   22.668468    ( 0.0000,  0.0000,  0.0000)
  65 Cl     7.796854    2.949642    7.999351    ( 0.0000,  0.0000,  0.0000)
  66 Cl     3.285427    1.026889    7.992637    ( 0.0000,  0.0000,  0.0000)
[...]
                        Cl

[...]

           Cl
                        Cl
                             Cl
                   Cl   Cu     Cu    Cu
                    Cu    Cu     Cu
               Cu    Clu
                     Cu    CCu    Cu
                Cu     Cu    Cu
           Cu
                 CCu   CCu    Cu
            Cu     Cu    Cu
                        Cu     Cu    Cu
        Cu    Cu    CCu   Cu     Cu
               Cu     Cu    Cu
                     Cu    Cu     Cu
                Cu     Cu    Cu
            Cu    Cu     Cu
                 Cu    Cu     Cu
            Cu     Cu    Cu
        Cu           Cu
              Cu   Cl      Cl
           Cl
                    Cl           Cl
                        Cl

[...]

           Cl
                        Cl
                             Cl
                   Cl   Cu     Cu    Cu
                    Cu    Cu     Cu
               Cu    Clu
                     Cu    CCu    Cu
                Cu     Cu    Cu
           Cu     Cu    Cu
                 Cu    Cu     Cu
            Cu     Cu    Cu
                        Cu     Cu    Cu
        Cu    Cu    CCu   Cu     Cu
               Cu     Cu    Cu
                     Cu    Cu     Cu
                Cu     Cu    Cu
            Cu    Cu     Cu
                 Cu    Cu     Cu
            Cu     Cu    Cu
        Cu           Cu
              Cu   Cl      Cl
           Cl
                    Cl           Cl
                        Cl

[...]

           Cl
                        Cl
                             Cl
                  Cl    Cu     Cu    Cu
                    Cu    Cu     Cu
               Cu    Clu    Cu
                     Cu    Cu     Cu
                Cu     Cu    Cu
           Cu     Cu    Cu
                 Cu    Cu     Cu
            Cu     Cu    Cu
        Cu           Cu Cu     Cu    Cu
              Cu    Cu    Cu     Cu
               Cu     Cu    Cu
                     Cu    Cu     Cu
                Cu     Cu    Cu
            Cu    Cu     Cu
                 Cu    Cu     Cu
            Cu     Cu    Cu
        Cu           Cu
              Cu   Cl      Cl
           Cl
                    Cl           Cl
                        Cl

[...]

           Cl
                        Cl
                             Cl
                  Cl    Cu     Cu    Cu
                    Cu    Cu     Cu
               Cu    Clu    Cu
                     Cu    Cu     Cu
                Cu     Cu    Cu
           Cu     Cu    Cu
                 Cu    Cu     Cu
            Cu     Cu    Cu
        Cu           Cu Cu     Cu    Cu
              Cu    Cu    Cu     Cu
               Cu     Cu    Cu
                     Cu    Cu     Cu
                Cu     Cu    Cu
            Cu    Cu     Cu
                 Cu    Cu     Cu
            Cu     Cu    Cu
        Cu           Cu
              Cu   Cl      Cl
           Cl
                    Cl           Cl
                        Cl

[...]

           Cl
                        Cl
                             Cl
                  Cl    Cu     Cu    Cu
                    Cu    Cu     Cu
               Cu    Clu    Cu
                     Cu    Cu     Cu
                Cu     Cu    Cu
           Cu     Cu    Cu
                 Cu    Cu     Cu
            Cu     Cu    Cu
        Cu    Cu     Cu Cu     Cu    Cu
                    Cu    Cu     Cu
               Cu     Cu    Cu
                     Cu    Cu     Cu
                Cu     Cu    Cu
            Cu    Cu     Cu
                 Cu    Cu     Cu
            Cu     Cu    Cu
        Cu           Cu
              Cu   Cl      Cl
           Cl
                    Cl           Cl
                        Cl

[...]

                    CCl   Cu     Cu
               Cu    CCu   CCu    Cu

[...]

            Cu   CCu   CuCu   Cu
            Cu           Cu
                   Cu
        Cu    Cu   ClCu    Cl

[...]

                        Cl
                  Cl    Cu   ClCu    Cu

                    CCl   Cu     Cu
               Cu    CCu   CCu    Cu

[...]

                        Cl
                  Cl    Cu   ClCu    Cu
                          Cu     Cu
                    CCl
               Cu    CCu   CCu    Cu

[...]

            Cu   CCu   CuCu   Cu
            Cu           Cu
                   Cu
        Cu    Cu   ClCu    Cl
           Cl
                    Cl           Cl
                        Cl

[...]

            Cu   CCu   CuCu   Cu
            Cu           Cu
                   Cu
        Cu    Cu   ClCu    Cl

           Cl       Cl           Cl
                        Cl

[...]

           Cu    CCu   CCu    Cu
            Cu     Cu
                        CCu    Cu    Cu
        Cu    Cu    CCu   Cu     Cu

[...]

                  Cl    Cu   ClCu    Cu
                    Cu    Cu     Cu
                     Cl
               Cu    CCu   CCu    Cu
                Cu
                       Cu    Cu
           Cu    CCu   CCu    Cu

[...]

                  Cl    Cu   ClCu    Cu
                    Cu    Cu     Cu
                     Cl
               Cu    CCu   CCu    Cu

                Cu     Cu    Cu
           Cu    CCu   CCu    Cu

[...]

                  Cl    Cu   ClCu    Cu
                    Cu    Cu     Cu
                    Cl
               Cu    CCu   CCu    Cu
                Cu           Cu
                       Cu
           Cu    CCu   CCu    Cu

[...]

            Cu   CCu   CuCu   Cu
            Cu     Cu    Cu

        Cu    Cu   ClCu    Cl
           Cl
                    Cl            Cl
                        Cl

[...]

           Cu    CCu   CCu    Cu

            Cu     Cu   CCu    Cu    Cu
        Cu    Cu    CCu   Cu     Cu

[...]

            Cu   CCu   CuCu   Cu
            Cu           Cu
                   Cu
        Cu    Cu   ClCu    Cl
           Cl
                    Cl            Cl
                        Cl

[...]

                             Cl
                               Cl   Cl

[...]

System changes: positions

Initializing position-dependent things.

Density initialized from wave functions

[...]

                               Cl   Cl

[...]

                  Cl    Cu   ClCu    Cu
                    Cu    Cu     Cu
                    Cl
               Cu    CCu   CCu    Cu
                Cu     Cu    Cu

           Cu    CCu   CCu    Cu
            Cu     Cu
                        CCu    Cu    Cu
        Cu    Cu    CCu   Cu     Cu

               Cu    CCu   CCu    Cu
                Cu     Cu    Cu

            Cu   CCu   CuCu   Cu
            Cu     Cu    Cu

        Cu    Cu   ClCu    Cl
           Cl
                    Cl            Cl
                        Cl

              Cl
           Cl

Positions:
   0 Cu     2.918229    0.021680    9.978297    ( 0.0000,  0.0000,  0.0000)
   1 Cu     4.210178    2.280667    9.880430    ( 0.0000,  0.0000,  0.0000)
   2 Cu     0.279733    0.010848   10.060642    ( 0.0000,  0.0000,  0.0000)
   3 Cu     1.601033    2.299216   10.036516    ( 0.0000,  0.0000,  0.0000)
   4 Cu     2.915937    3.019732   12.130426    ( 0.0000,  0.0000,  0.0000)
   5 Cu     1.614252    0.774810   12.155752    ( 0.0000,  0.0000,  0.0000)
   6 Cu     5.516720    3.036409   12.079754    ( 0.0000,  0.0000,  0.0000)
   7 Cu     4.197136    0.793883   12.119967    ( 0.0000,  0.0000,  0.0000)
   8 Cu     5.522681    1.527823   14.270706    ( 0.0000,  0.0000,  0.0000)
   9 Cu     6.829087    3.796209   14.254852    ( 0.0000,  0.0000,  0.0000)
  10 Cu     2.908336    1.532004   14.294403    ( 0.0000,  0.0000,  0.0000)
  11 Cu     4.218351    3.793158   14.266336    ( 0.0000,  0.0000,  0.0000)
  12 Cu     2.897345    0.013689   16.405988    ( 0.0000,  0.0000,  0.0000)
  13 Cu     4.207119    2.289910   16.433541    ( 0.0000,  0.0000,  0.0000)
  14 Cu     0.281218    0.015915   16.415638    ( 0.0000,  0.0000,  0.0000)
  15 Cu     1.587967    2.290786   16.438367    ( 0.0000,  0.0000,  0.0000)
  16 Cu     2.889622    3.070063   18.598880    ( 0.0000,  0.0000,  0.0000)
  17 Cu     1.592184    0.781909   18.535575    ( 0.0000,  0.0000,  0.0000)
  18 Cu     5.521737    3.054850   18.589411    ( 0.0000,  0.0000,  0.0000)
  19 Cu     4.198118    0.769127   18.545192    ( 0.0000,  0.0000,  0.0000)
  20 Cu     5.520211    1.524122   20.669840    ( 0.0000,  0.0000,  0.0000)
  21 Cu     6.824542    3.801797   20.796822    ( 0.0000,  0.0000,  0.0000)
  22 Cu     2.854716    1.523685   20.643480    ( 0.0000,  0.0000,  0.0000)
  23 Cu     4.200352    3.827973   20.757237    ( 0.0000,  0.0000,  0.0000)
  24 Cu     5.519790    4.567721    9.895672    ( 0.0000,  0.0000,  0.0000)
  25 Cu     2.870954    4.572518   10.104638    ( 0.0000,  0.0000,  0.0000)
  26 Cu     4.237664    5.307161   12.137657    ( 0.0000,  0.0000,  0.0000)
  27 Cu     6.812047    5.314834   12.104799    ( 0.0000,  0.0000,  0.0000)
  28 Cu     8.138915    6.064682   14.262886    ( 0.0000,  0.0000,  0.0000)
  29 Cu     5.524358    6.061916   14.278071    ( 0.0000,  0.0000,  0.0000)
  30 Cu     5.517640    4.548948   16.415766    ( 0.0000,  0.0000,  0.0000)
  31 Cu     2.899359    4.550710   16.410660    ( 0.0000,  0.0000,  0.0000)
  32 Cu     4.196113    5.294747   18.545881    ( 0.0000,  0.0000,  0.0000)
  33 Cu     6.836537    5.298848   18.560235    ( 0.0000,  0.0000,  0.0000)
  34 Cu     8.115422    6.074105   20.668853    ( 0.0000,  0.0000,  0.0000)
  35 Cu     5.511067    6.108376   20.585048    ( 0.0000,  0.0000,  0.0000)
  36 Cu     5.544698    0.013628   10.095973    ( 0.0000,  0.0000,  0.0000)
  37 Cu     6.843506    2.272685    9.970079    ( 0.0000,  0.0000,  0.0000)
  38 Cu     8.145817    3.030669   12.144753    ( 0.0000,  0.0000,  0.0000)
  39 Cu     6.845106    0.793731   12.138053    ( 0.0000,  0.0000,  0.0000)
  40 Cu     8.145638    1.527334   14.285060    ( 0.0000,  0.0000,  0.0000)
  41 Cu     9.452822    3.792245   14.282369    ( 0.0000,  0.0000,  0.0000)
  42 Cu     5.516394    0.013352   16.414406    ( 0.0000,  0.0000,  0.0000)
  43 Cu     6.827250    2.286700   16.412242    ( 0.0000,  0.0000,  0.0000)
  44 Cu     8.120026    3.074364   18.582861    ( 0.0000,  0.0000,  0.0000)
  45 Cu     6.807848    0.782866   18.540871    ( 0.0000,  0.0000,  0.0000)
  46 Cu     8.108423    1.506920   20.595049    ( 0.0000,  0.0000,  0.0000)
  47 Cu     9.429236    3.802006   20.787383    ( 0.0000,  0.0000,  0.0000)
  48 Cu     8.171116    4.583139   10.071691    ( 0.0000,  0.0000,  0.0000)
  49 Cu     9.447323    5.304932   12.159496    ( 0.0000,  0.0000,  0.0000)
  50 Cu    10.761531    6.063911   14.271300    ( 0.0000,  0.0000,  0.0000)
  51 Cu     8.131113    4.549814   16.402570    ( 0.0000,  0.0000,  0.0000)
  52 Cu     9.426439    5.289145   18.553088    ( 0.0000,  0.0000,  0.0000)
  53 Cu    10.768423    6.067766   20.610100    ( 0.0000,  0.0000,  0.0000)
  54 Cl     8.157202    2.499071   22.627424    ( 0.0000,  0.0000,  0.0000)
  55 Cl     3.765956    4.052220    8.097610    ( 0.0000,  0.0000,  0.0000)
  56 Cl    10.533066    4.216210   25.760601    ( 0.0000,  0.0000,  0.0000)
  57 Cl     1.476097    0.225374    4.588737    ( 0.0000,  0.0000,  0.0000)
  58 Cl     9.419519    5.425389    5.338396    ( 0.0000,  0.0000,  0.0000)
  59 Cl     1.530181   -0.632550   26.370542    ( 0.0000,  0.0000,  0.0000)
  60 Cl     5.703116    5.132695   22.609989    ( 0.0000,  0.0000,  0.0000)
  61 Cl     5.034307    0.756130    8.024673    ( 0.0000,  0.0000,  0.0000)
  62 Cl     5.519375    5.016207    4.708931    ( 0.0000,  0.0000,  0.0000)
  63 Cl     5.645733   -1.092460   22.550040    ( 0.0000,  0.0000,  0.0000)
  64 Cl     4.090447    2.109166   22.529609    ( 0.0000,  0.0000,  0.0000)
  65 Cl     7.232040    3.804334    8.128217    ( 0.0000,  0.0000,  0.0000)
  66 Cl     1.446699    0.781756    8.170781    ( 0.0000,  0.0000,  0.0000)
  67 Cl     7.127312    7.019933   25.637493    ( 0.0000,  0.0000,  0.0000)
  68 Cl     8.787832    3.420515   26.374653    ( 0.0000,  0.0000,  0.0000)
  69 Cl     1.723442    3.785892    4.172221    ( 0.0000,  0.0000,  0.0000)

Unit cell:
           periodic     x           y           z      points  spacing
  1. axis:    yes    7.851007    0.000000    0.000000    45     0.1511
  2. axis:    yes    3.925503    6.799171    0.000000    45     0.1511
  3. axis:    yes    0.000000    0.000000   30.683867   175     0.1753

  Lengths:   7.851007   7.851006  30.683867
  Angles:   90.000000  90.000000  60.000001

Effective grid spacing dv^(1/3) = 0.1666

     iter     time        total  log10-change:
                         energy  eigst   dens
iter:   1 00:47:15 -4669.303438  -3.72
iter:   2 00:48:09 -4669.331932  -3.84  -2.93
iter:   3 00:49:04 -4669.257163c -4.52  -2.87
iter:   4 00:49:59 -4669.256360c -5.66  -3.52
iter:   5 00:50:53 -4669.256183c -5.27  -3.66
iter:   6 00:51:48 -4669.255830c -5.72  -3.86
iter:   7 00:52:44 -4669.255850c -6.45  -4.06c
iter:   8 00:53:39 -4669.255793c -6.11  -4.12c
iter:   9 00:54:34 -4669.255758c -7.39  -4.41c
iter:  10 00:55:24 -4669.255728c -6.64  -4.53c
iter:  11 00:56:19 -4669.255737c -7.14  -4.70c
iter:  12 00:57:05 -4669.255721c -7.22  -4.83c
iter:  13 00:57:52 -4669.255720c -8.03c -4.99c

Converged after 13 iterations.

Dipole moment: (-21.641096, -23.055538, 0.085112) |e|*Ang

Energy contributions relative to reference atoms: (reference = -2632037.589752)

Kinetic:       +506.826270
Potential:     -536.793595
External:        +0.000000
XC:            -4638.408390
Entropy (-ST):   -0.510103
Local:           -0.624953
Free energy:   -4669.510771
Extrapolated:  -4669.255720

Showing only first 2 kpts
 Kpt  Band  Eigenvalues  Occupancy
  0   351      1.27442    1.17664
  0   352      1.36680    0.72400
  0   353      1.40415    0.56170
  0   354      1.48203    0.30399

  1   351      0.75973    1.99189
  1   352      0.78474    1.98960
  1   353      1.17434    1.59084
  1   354      1.19917    1.50410

Fermi level: 1.31013

No gap

Forces in eV/Ang:
  0 Cu   -0.00429    0.00018    0.00488
  1 Cu    0.00319   -0.00091   -0.00056
  2 Cu   -0.00422   -0.00686    0.00581
  3 Cu   -0.00359   -0.00081    0.00669
  4 Cu    0.00207    0.00900   -0.00890
  5 Cu   -0.00551    0.00142    0.00187
  6 Cu    0.00095    0.00864   -0.00267
  7 Cu    0.00312    0.00221   -0.00309
  8 Cu   -0.00382    0.00496   -0.00098
  9 Cu   -0.00022    0.00570   -0.00215
 10 Cu    0.00315    0.00521    0.00117
 11 Cu   -0.00085    0.00151    0.00270
 12 Cu    0.00579   -0.00405    0.00458
 13 Cu    0.00085   -0.00028    0.00685
 14 Cu   -0.00724    0.00272    0.00640
 15 Cu   -0.00134    0.00609   -0.00117
 16 Cu    0.00016   -0.00271   -0.00291
 17 Cu    0.00090   -0.00221   -0.00667
 18 Cu    0.00133   -0.00141    0.00432
 19 Cu    0.00358   -0.00224   -0.00088
 20 Cu    0.00424   -0.00599    0.01695
 21 Cu    0.00038   -0.00591    0.00261
 22 Cu    0.00263   -0.00736   -0.00199
 23 Cu    0.00172    0.00303    0.00399
 24 Cu    0.00080   -0.00420    0.00413
 25 Cu    0.00619   -0.00161   -0.00005
 26 Cu   -0.00405    0.00177   -0.01201
 27 Cu    0.00348    0.00833   -0.00492
 28 Cu   -0.00134    0.00406   -0.00244
 29 Cu    0.00125   -0.00306    0.00001
 30 Cu   -0.00039    0.00182    0.00763
 31 Cu   -0.00661    0.00284    0.00173
 32 Cu   -0.00008    0.00099    0.00095
 33 Cu    0.00011   -0.00181   -0.00114
 34 Cu   -0.00526   -0.00352   -0.00326
 35 Cu   -0.00050   -0.00042    0.00971
 36 Cu   -0.00510    0.00115   -0.01181
 37 Cu   -0.00106   -0.00520    0.00407
 38 Cu   -0.00071    0.00629   -0.00685
 39 Cu   -0.00488    0.00021   -0.00705
 40 Cu   -0.00178    0.00757    0.00206
 41 Cu    0.00197    0.00564   -0.00088
 42 Cu   -0.00923   -0.00359   -0.00086
 43 Cu   -0.00448    0.00648    0.00333
 44 Cu    0.00001    0.00004   -0.00366
 45 Cu   -0.00998    0.00315    0.00383
 46 Cu   -0.00706   -0.00267    0.00552
 47 Cu    0.00090    0.00157   -0.00160
 48 Cu   -0.00482   -0.00004    0.00381
 49 Cu    0.00153    0.00393   -0.00808
 50 Cu   -0.00666    0.00396   -0.00357
 51 Cu   -0.00201    0.00536   -0.00127
 52 Cu   -0.00082    0.00307   -0.00225
 53 Cu   -0.00374   -0.00151   -0.00523
 54 Cl   -0.00449    0.00615   -0.00288
 55 Cl    0.00619    0.00059    0.00042
 56 Cl    0.01352   -0.01054    0.00739
 57 Cl    0.00338    0.00111    0.00241
 58 Cl   -0.01432   -0.01939   -0.00067
 59 Cl    0.01392   -0.00241    0.01002
 60 Cl    0.00952    0.00349    0.00172
 61 Cl    0.02501   -0.00046    0.00506
 62 Cl    0.00786    0.00738   -0.01432
 63 Cl    0.00645   -0.01875   -0.00611
 64 Cl   -0.01230   -0.00963    0.00106
 65 Cl    0.00234   -0.00052   -0.00032
 66 Cl    0.01140   -0.01786    0.01907
 67 Cl    0.00082   -0.00819   -0.01480
 68 Cl   -0.01320    0.00404   -0.00417
 69 Cl   -0.00382    0.01940    0.00089