User:   thorkong@node027.cluster
Date:   Sat Nov 19 07:06:30 2022
Arch:   x86_64
Pid:    2887
Python: 3.10.5
gpaw:   /groups/kemi/thorkong/miniconda3/envs/gpaw22/lib/python3.10/site-packages/gpaw
_gpaw:  /groups/kemi/thorkong/miniconda3/envs/gpaw22/lib/python3.10/site-packages/
        _gpaw.cpython-310-x86_64-linux-gnu.so
ase:    /groups/kemi/thorkong/miniconda3/envs/gpaw22/lib/python3.10/site-packages/ase (version 3.22.1)
numpy:  /groups/kemi/thorkong/miniconda3/envs/gpaw22/lib/python3.10/site-packages/numpy (version 1.23.0)
scipy:  /groups/kemi/thorkong/miniconda3/envs/gpaw22/lib/python3.10/site-packages/scipy (version 1.8.1)
units:  Angstrom and eV
cores: 32
OpenMP: True
OMP_NUM_THREADS: 1

Input parameters:
  basis: dzp
  kpts: [4 4 1]
  mode: {ecut: 600.0,
         name: pw}
  xc: BEEF-vdW

System changes: positions, numbers, cell, pbc, initial_charges, initial_magmoms

Initialize ...

Cu-setup:
  name: Copper
  id: f1c4d45d90492f1bbfdcb091e8418fdf
  Z: 29.0
  valence: 11
  core: 18
  charge: 0.0
  file: /groups/kemi/thorkong/miniconda3/envs/gpaw22/share/gpaw/Cu.PBE.gz
  compensation charges: gauss, rc=0.33, lmax=2
  cutoffs: 2.06(filt), 2.43(core),
  valence states:
                energy  radius
    4s(1.00)    -4.609   1.164
    4p(0.00)    -0.698   1.164
    3d(10.00)    -5.039   1.058
    *s          22.603   1.164
    *p          26.513   1.164
    *d          22.172   1.058

  LCAO basis set for Cu:
    Name: dzp
    File: /groups/kemi/thorkong/miniconda3/envs/gpaw22/share/gpaw/Cu.dzp.basis.gz
    Number of radial functions: 5
    Number of spherical harmonics: 15
      l=0, rc=8.9688 Bohr: 4s-sz confined orbital
      l=2, rc=5.1719 Bohr: 3d-sz confined orbital
      l=0, rc=5.3281 Bohr: 4s-dz split-valence wave
      l=2, rc=3.1406 Bohr: 3d-dz split-valence wave
      l=1, rc=8.9688 Bohr: p-type Gaussian polarization

Cl-setup:
  name: Chlorine
  id: 726897f06f34e53cf8e33b5885a02604
  Z: 17.0
  valence: 7
  core: 10
  charge: 0.0
  file: /groups/kemi/thorkong/miniconda3/envs/gpaw22/share/gpaw/Cl.PBE.gz
  compensation charges: gauss, rc=0.25, lmax=2
  cutoffs: 1.40(filt), 1.49(core),
  valence states:
                energy  radius
    3s(2.00)   -20.689   0.794
    3p(5.00)    -8.594   0.794
    *s           6.523   0.794
    *p          18.617   0.794
    *d           0.000   0.794

  LCAO basis set for Cl:
    Name: dzp
    File: /groups/kemi/thorkong/miniconda3/envs/gpaw22/share/gpaw/Cl.dzp.basis.gz
    Number of radial functions: 5
    Number of spherical harmonics: 13
      l=0, rc=5.1719 Bohr: 3s-sz confined orbital
      l=1, rc=6.2656 Bohr: 3p-sz confined orbital
      l=0, rc=2.8281 Bohr: 3s-dz split-valence wave
      l=1, rc=3.5156 Bohr: 3p-dz split-valence wave
      l=2, rc=6.2656 Bohr: d-type Gaussian polarization

Reference energy: -2581817.792169

Spin-paired calculation

Convergence criteria:
 Maximum [total energy] change in last 3 cyles: 0.0005 eV / electron
 Maximum integral of absolute [dens]ity change: 0.0001 electrons / valence electron
 Maximum integral of absolute [eigenst]ate change: 4e-08 eV^2 / valence electron
 Maximum number of scf [iter]ations: 333
 (Square brackets indicate name in SCF output, whereas a 'c' in
 the SCF output indicates the quantity has converged.)

Symmetries present (total): 1

  ( 1  0  0)
  ( 0  1  0)
  ( 0  0  1)

16 k-points: 4 x 4 x 1 Monkhorst-Pack grid
8 k-points in the irreducible part of the Brillouin zone
       k-points in crystal coordinates                weights
   0:     0.12500000   -0.37500000    0.00000000          2/16
   1:     0.12500000   -0.12500000    0.00000000          2/16
   2:     0.12500000    0.12500000    0.00000000          2/16
   3:     0.12500000    0.37500000    0.00000000          2/16
   4:     0.37500000   -0.37500000    0.00000000          2/16
   5:     0.37500000   -0.12500000    0.00000000          2/16
   6:     0.37500000    0.12500000    0.00000000          2/16
   7:     0.37500000    0.37500000    0.00000000          2/16

Wave functions: Plane wave expansion
  Cutoff energy: 600.000 eV
  Number of coefficients (min, max): 54614, 54705
  Pulay-stress correction: 0.000000 eV/Ang^3 (de/decut=0.000000)
  Using FFTW library
  ScaLapack parameters: grid=2x2, blocksize=64
  Wavefunction extrapolation:
    Improved wavefunction reuse through dual PAW basis

Occupation numbers: Fermi-Dirac: width=0.1000 eV

Eigensolver
   Davidson(niter=2)

Densities:
  Coarse grid: 45*45*175 grid
  Fine grid: 90*90*350 grid
  Total Charge: 0.000000

Density mixing:
  Method: separate
  Backend: pulay
  Linear mixing parameter: 0.05
  Mixing with 5 old densities
  Damping of long wave oscillations: 50

Hamiltonian:
  XC and Coulomb potentials evaluated on a 90*90*350 grid
  Using the BEEF-vdW Exchange-Correlation functional
  External potential:
    NoExternalPotential

XC parameters: BEEF-vdW with 2 nearest neighbor stencil

Total number of cores used: 32
Parallelization over k-points: 8
Domain decomposition: 1 x 1 x 4
                      2 x 2 x 8 (xc only)

Number of atoms: 66
Number of atomic orbitals: 966
Number of bands in calculation: 411
Number of valence electrons: 678
Bands to converge: occupied

... initialized

Initializing position-dependent things.

Density initialized from atomic densities
Creating initial wave functions:
  411 bands from LCAO basis set

                 Cl    Cl    Cl
                      ClCu    Cu     Cu
               Cl  Cu     CCl   Cu

               Cu   CCu    CCu   Cu
                Cu           Cu
                      Cu
           Cu   CCu    CCu   Cu

            Cu    Cu    CCu   Cu     Cu
       Cu     Cu   CCu    Cu    Cu

               Cu   CCu    CCu   Cu
                      Cu    Cu
               Cu
           Cu   CCu    CCu   Cu
                         Cu
            Cu   CCu         Cl
       Cu     Cu    Cul
               Cl    Cl    Cl

Positions:
   0 Cu     2.877915   -0.082491    9.917658    ( 0.0000,  0.0000,  0.0000)
   1 Cu     4.209309    2.242023    9.937251    ( 0.0000,  0.0000,  0.0000)
   2 Cu     0.267750    0.007166    9.935837    ( 0.0000,  0.0000,  0.0000)
   3 Cu     1.556573    2.267274    9.911287    ( 0.0000,  0.0000,  0.0000)
   4 Cu     2.864650    3.001957   12.084938    ( 0.0000,  0.0000,  0.0000)
   5 Cu     1.577222    0.721880   12.057086    ( 0.0000,  0.0000,  0.0000)
   6 Cu     5.478953    2.998595   12.153805    ( 0.0000,  0.0000,  0.0000)
   7 Cu     4.209092    0.733335   12.059641    ( 0.0000,  0.0000,  0.0000)
   8 Cu     5.504262    1.502633   14.274886    ( 0.0000,  0.0000,  0.0000)
   9 Cu     6.823445    3.769370   14.277542    ( 0.0000,  0.0000,  0.0000)
  10 Cu     2.896029    1.500490   14.217927    ( 0.0000,  0.0000,  0.0000)
  11 Cu     4.191344    3.774861   14.268141    ( 0.0000,  0.0000,  0.0000)
  12 Cu     2.907720   -0.003418   16.400669    ( 0.0000,  0.0000,  0.0000)
  13 Cu     4.203760    2.271323   16.402565    ( 0.0000,  0.0000,  0.0000)
  14 Cu     0.291787   -0.003970   16.402872    ( 0.0000,  0.0000,  0.0000)
  15 Cu     1.597307    2.273013   16.382996    ( 0.0000,  0.0000,  0.0000)
  16 Cu     2.907865    3.052163   18.544065    ( 0.0000,  0.0000,  0.0000)
  17 Cu     1.613415    0.761320   18.508850    ( 0.0000,  0.0000,  0.0000)
  18 Cu     5.546521    3.038918   18.526760    ( 0.0000,  0.0000,  0.0000)
  19 Cu     4.233085    0.741609   18.510148    ( 0.0000,  0.0000,  0.0000)
  20 Cu     5.547968    1.431370   20.545106    ( 0.0000,  0.0000,  0.0000)
  21 Cu     6.818674    3.768700   20.695372    ( 0.0000,  0.0000,  0.0000)
  22 Cu     2.918054    1.561581   20.543758    ( 0.0000,  0.0000,  0.0000)
  23 Cu     4.309358    3.761720   20.648520    ( 0.0000,  0.0000,  0.0000)
  24 Cu     5.507350    4.563905   10.093875    ( 0.0000,  0.0000,  0.0000)
  25 Cu     2.890416    4.477115   10.017521    ( 0.0000,  0.0000,  0.0000)
  26 Cu     4.192959    5.295737   12.141008    ( 0.0000,  0.0000,  0.0000)
  27 Cu     6.802742    5.283236   12.151538    ( 0.0000,  0.0000,  0.0000)
  28 Cu     8.126294    6.039901   14.262639    ( 0.0000,  0.0000,  0.0000)
  29 Cu     5.512277    6.039709   14.278119    ( 0.0000,  0.0000,  0.0000)
  30 Cu     5.521783    4.540086   16.412474    ( 0.0000,  0.0000,  0.0000)
  31 Cu     2.901463    4.548343   16.445346    ( 0.0000,  0.0000,  0.0000)
  32 Cu     4.254194    5.310890   18.602125    ( 0.0000,  0.0000,  0.0000)
  33 Cu     6.821280    5.310148   18.626550    ( 0.0000,  0.0000,  0.0000)
  34 Cu     8.156310    6.079931   20.782955    ( 0.0000,  0.0000,  0.0000)
  35 Cu     5.553695    6.083780   20.836871    ( 0.0000,  0.0000,  0.0000)
  36 Cu     5.471575   -0.038571    9.929976    ( 0.0000,  0.0000,  0.0000)
  37 Cu     6.730301    2.251057   10.099500    ( 0.0000,  0.0000,  0.0000)
  38 Cu     8.134799    2.987516   12.149908    ( 0.0000,  0.0000,  0.0000)
  39 Cu     6.788445    0.723635   12.124880    ( 0.0000,  0.0000,  0.0000)
  40 Cu     8.132451    1.491719   14.249076    ( 0.0000,  0.0000,  0.0000)
  41 Cu     9.436763    3.771182   14.292782    ( 0.0000,  0.0000,  0.0000)
  42 Cu     5.521035   -0.005057   16.391113    ( 0.0000,  0.0000,  0.0000)
  43 Cu     6.836056    2.267901   16.406925    ( 0.0000,  0.0000,  0.0000)
  44 Cu     8.171203    3.040002   18.563714    ( 0.0000,  0.0000,  0.0000)
  45 Cu     6.844314    0.730732   18.509541    ( 0.0000,  0.0000,  0.0000)
  46 Cu     8.159572    1.543977   20.578872    ( 0.0000,  0.0000,  0.0000)
  47 Cu     9.463101    3.745321   20.766708    ( 0.0000,  0.0000,  0.0000)
  48 Cu     8.137169    4.457738   10.118820    ( 0.0000,  0.0000,  0.0000)
  49 Cu     9.434193    5.265468   12.150566    ( 0.0000,  0.0000,  0.0000)
  50 Cu    10.743574    6.035171   14.274300    ( 0.0000,  0.0000,  0.0000)
  51 Cu     8.134717    4.545352   16.455064    ( 0.0000,  0.0000,  0.0000)
  52 Cu     9.457246    5.314236   18.632681    ( 0.0000,  0.0000,  0.0000)
  53 Cu    10.769981    6.015379   20.766684    ( 0.0000,  0.0000,  0.0000)
  54 Cl     5.720641    2.510156   22.500035    ( 0.0000,  0.0000,  0.0000)
  55 Cl     5.022873    3.603522    8.124256    ( 0.0000,  0.0000,  0.0000)
  56 Cl     8.010238    4.491417   22.573969    ( 0.0000,  0.0000,  0.0000)
  57 Cl     2.915493    1.431449    8.112355    ( 0.0000,  0.0000,  0.0000)
  58 Cl     7.705457    5.313573    8.098844    ( 0.0000,  0.0000,  0.0000)
  59 Cl     3.192639    0.624942   22.562706    ( 0.0000,  0.0000,  0.0000)
  60 Cl     3.129084    4.175258   22.560636    ( 0.0000,  0.0000,  0.0000)
  61 Cl     7.806764    2.036867    8.134306    ( 0.0000,  0.0000,  0.0000)
  62 Cl     2.898332    5.897018    8.179543    ( 0.0000,  0.0000,  0.0000)
  63 Cl     7.981457    0.334672   22.516584    ( 0.0000,  0.0000,  0.0000)
  64 Cl     5.560576    4.538067   22.126921    ( 0.0000,  0.0000,  0.0000)
  65 Cl     5.470395    1.484836    8.588909    ( 0.0000,  0.0000,  0.0000)

Unit cell:
           periodic     x           y           z      points  spacing
  1. axis:    yes    7.851007    0.000000    0.000000    45     0.1511
  2. axis:    yes    3.925503    6.799171    0.000000    45     0.1511
[...]
            Cu    Cu     Cu
              Cu            Cl
       Cu
                    Cl       Cl

                  Cu   Cl

[...]

             Cl     CuCl  Cu     Cu
               Cu    CCu    Cu    Cu

[...]

            Cu     Cu    Cu    Cu     Cu
        Cu    Cu     Cu
                    Cu    Cu     Cu
               Cu    CCu   CCu    Cu

[...]

            Cu     Cu    Cu    Cu     Cu
        Cu    Cu     Cu   Cu
                    Cu           Cu
               Cu    CCu   CCu    Cu

[...]

            Cu    CCu    Cu Cl
        Cu    Cu
                    Cl       Cl

[...]

                       ClCl

[...]

             Cu    Cu    Cu    Cu     Cu
        Cu    Cu    CCu   Cu     Cu

[...]

                   Cl    Cu  ClCu     Cu

             Cl     CuCl   Cu    Cu
               Cu    CCu    Cu    Cu

[...]

             Cu    Cu    Cu    Cu     Cu
        Cu    Cu    CCu   Cu     Cu

               Cu    CCu   CCu    Cu

                Cu     Cu    Cu
           Cu    CCu    Cu    Cu

            Cu     Cu    Cu Cl
        Cu    Cu
                     Cl      Cl

                   Cu   Cl
                       Cu
                      Cl

[...]

                  Cl         Clu
                        Cu           Cu
             Cl     CuCl  Cu    Cu
               Cu    Cu    CCu   Cu
                    Cu
                Cu    Cu     Cu
           Cu     Cu   CCu
                 Cu           Cu
            Cu     Cu   CCu   Cu     Cu
        Cu    Cu    Cu
                   Cu     Cu    Cu
               Cu   CCu    CCu   Cu
                Cu
                      Cu     Cu
           Cu    CCu    Cu   Cu
            Cu    Cu
                  Cl     Cu Cl
       Cu     Cu
                    Cl       Cl

[...]

                  Cl         Clu
                        Cu           Cu
             Cl    Cu Cl  Cu    Cu
               Cu   CCu    CCu   Cu

[...]

            Cu     Cu   CCu   Cu     Cu
        Cu    Cu    Cu
                   Cu     Cu    Cu
               Cu   CCu    CCu   Cu
                Cu
                      Cu     Cu
           Cu    CCu    Cu   Cu
            Cu    Cu
                  Cl     Cu Cl
       Cu     Cu
                    Cl       Cl

[...]

                  Cl         Clu
                        Cu           Cu
             Cl    Cu Cl  Cu    Cu
               Cu   CCu    CCu   Cu

[...]

            Cu     Cu   CCu   Cu     Cu
        Cu    Cu    Cu
                   Cu     Cu    Cu
               Cu   CCu    CCu   Cu

                Cu    Cu    Cu
           Cu    CCu    Cu   Cu
            Cu    Cu
                  Cl     Cu Cl
       Cu     Cu
                    Cl       Cl

[...]

                  Cl    Cu   Clu
                                     Cu
             Cl    Cu Cl  Cu    Cu
               Cu   CCu    CCu   Cu

[...]

            Cu     Cu   CCu   Cu     Cu
        Cu    Cu    Cu
                   Cu     Cu    Cu
               Cu   CCu    CCu   Cu
                Cu
                      Cu    Cu
           Cu    CCu    Cu   Cu
                  Cu
            Cu    Cl     Cu Cl
       Cu     Cu
                    Cl       Cl

[...]

               Cu   CCu    CCu   Cu
                Cu
                      Cu    Cu
           Cu   CuCu    Cu   Cu
            Cu    Cu
                  Cl     Cu Cl
       Cu     Cu
                     Cl      Cl

[...]

                       Cll

[...]

               Cu   CCu    CCu   Cu
                Cu
                      Cu    Cu
           Cu   CCu     Cu   Cu
            Cu    Cu
                  Cl     Cu Cl
       Cu     Cu
                     Cl      Cl

[...]

               Cu   CCu    CCu   Cu
                Cu    Cu
                            Cu
           Cu   CCu     Cu   Cu
            Cu    Cu
                  Cl     Cu Cl
       Cu     Cu
                     Cl      Cl

[...]

               Cu   CCu    CCu   Cu
                Cu    Cu
                            Cu
           Cu   CCu     Cu   Cu
            Cu    Cu
                  Cl     Cu Cl
       Cu     Cu
                     Cl      Cl

[...]

                  Cl    Cu   Clu     Cu
                      Cl
             Cl    Cu     Cu    Cu
               Cu   CCu    CCu   Cu

[...]

           Cu   CCu     Cu   Cu
            Cu    Cu
                  Cl     Cu Cl
       Cu     Cu
                     Cl      Cl

[...]

                  Cl    Cu   Clu     Cu
             Cl       Cl  Cu
                   Cu           Cu
               Cu   CCu    CCu   Cu

                Cu    Cu     Cu
           Cu    CCu   CCu   Cu

[...]

                  Cl    Cu   Clu     Cu
             Cl       Cl  Cu    Cu
                   Cu
               Cu   CCu    CCu   Cu
                Cu    Cu
                             Cu
           Cu   CuCu   CCu   Cu

[...]

                  Cl    Cu   Clu     Cu
             Cl    CuCl   Cu    Cu

               Cu   CCu    CCu   Cu
                Cu    Cu
                             Cu
           Cu   CuCu   CCu   Cu

[...]

           Cu   CuCu    Cu   Cu
            Cu    Cu     Cu
                  Cl        Cl
       Cu     Cu
                     Cl       Cl

[...]

     iter     time        total  log10-change:
                         energy  eigst   dens
iter:   1 19:17:06 -4530.474887  -1.99
iter:   2 19:18:01 -4533.245896  -2.04  -2.05
iter:   3 19:18:51 -4528.096320  -2.59  -1.96
iter:   4 19:19:40 -4527.954255  -3.75  -2.58
iter:   5 19:20:29 -4527.931647c -4.59  -2.65
iter:   6 19:21:19 -4527.966774c -4.17  -2.83
iter:   7 19:22:09 -4527.919818c -3.79  -2.89
iter:   8 19:22:57 -4527.964378c -4.26  -2.88
iter:   9 19:23:46 -4527.920436c -4.94  -3.03
iter:  10 19:24:35 -4527.892930c -4.62  -3.26
iter:  11 19:25:34 -4527.901028c -5.64  -3.18
iter:  12 19:26:27 -4527.895183c -5.49  -3.58
iter:  13 19:27:16 -4527.900062c -5.40  -3.35
iter:  14 19:28:03 -4527.903451c -5.85  -3.87
iter:  15 19:28:46 -4527.906230c -6.63  -4.11c
iter:  16 19:29:28 -4527.903339c -5.97  -3.98
iter:  17 19:30:11 -4527.902876c -7.23  -4.29c
iter:  18 19:30:53 -4527.903652c -7.06  -4.32c
iter:  19 19:31:35 -4527.904148c -6.94  -4.54c
iter:  20 19:32:17 -4527.902845c -7.02  -4.44c
iter:  21 19:33:02 -4527.903296c -7.48c -4.50c

[...]

                  Cl    Cu   Clu     Cu
             Cl       Cl  Cu    Cu
                   Cu
               Cu   CCu    CCu   Cu
                Cu    Cu
                             Cu
           Cu   CuCu   CCu   Cu

[...]

System changes: positions

Initializing position-dependent things.

Density initialized from wave functions

[...]

                  Cl    Cu   Clu     Cu
             Cl    CuCl   Cu    Cu

[...]

           Cu   CuCu   CCu   Cu

            Cu    Cu    CCu   Cu     Cu
       Cu     Cu   CCu    Cu    Cu

               Cu   CCu    CCu   Cu
                Cu    Cu    Cu

           Cu   CCu     Cu   Cu
            Cu    Cu
                  Cl     Cu Cl
       Cu     Cu
                     Cl       Cl

                       Cl
                   Cu
                      Cu
                     Cl

Positions:
   0 Cu     2.870313    0.085497   10.225477    ( 0.0000,  0.0000,  0.0000)
   1 Cu     4.142319    2.352287   10.264076    ( 0.0000,  0.0000,  0.0000)
   2 Cu     0.254099    0.072658   10.153201    ( 0.0000,  0.0000,  0.0000)
   3 Cu     1.569066    2.325794   10.228402    ( 0.0000,  0.0000,  0.0000)
   4 Cu     2.852264    3.115906   12.286849    ( 0.0000,  0.0000,  0.0000)
   5 Cu     1.535067    0.818576   12.265567    ( 0.0000,  0.0000,  0.0000)
   6 Cu     5.489198    3.112580   12.256419    ( 0.0000,  0.0000,  0.0000)
   7 Cu     4.157567    0.832130   12.299961    ( 0.0000,  0.0000,  0.0000)
   8 Cu     5.466252    1.587848   14.406932    ( 0.0000,  0.0000,  0.0000)
   9 Cu     6.774248    3.863686   14.397783    ( 0.0000,  0.0000,  0.0000)
  10 Cu     2.840752    1.595936   14.428985    ( 0.0000,  0.0000,  0.0000)
  11 Cu     4.165517    3.859031   14.406423    ( 0.0000,  0.0000,  0.0000)
  12 Cu     2.852043    0.075415   16.564239    ( 0.0000,  0.0000,  0.0000)
  13 Cu     4.161751    2.340602   16.565965    ( 0.0000,  0.0000,  0.0000)
  14 Cu     0.232908    0.080193   16.526900    ( 0.0000,  0.0000,  0.0000)
  15 Cu     1.540171    2.343052   16.542112    ( 0.0000,  0.0000,  0.0000)
  16 Cu     2.855043    3.083004   18.689886    ( 0.0000,  0.0000,  0.0000)
  17 Cu     1.566985    0.850595   18.692650    ( 0.0000,  0.0000,  0.0000)
  18 Cu     5.502702    3.078953   18.693016    ( 0.0000,  0.0000,  0.0000)
  19 Cu     4.174345    0.832409   18.767891    ( 0.0000,  0.0000,  0.0000)
  20 Cu     5.507135    1.601679   20.931987    ( 0.0000,  0.0000,  0.0000)
  21 Cu     6.799096    3.860831   20.783300    ( 0.0000,  0.0000,  0.0000)
  22 Cu     2.858370    1.587405   20.940197    ( 0.0000,  0.0000,  0.0000)
  23 Cu     4.194293    3.887035   20.716744    ( 0.0000,  0.0000,  0.0000)
  24 Cu     5.617896    2.752233    4.996303    ( 0.0000,  0.0000,  0.0000)
  25 Cu     2.845912    4.596929   10.185140    ( 0.0000,  0.0000,  0.0000)
  26 Cu     4.165291    5.364664   12.260908    ( 0.0000,  0.0000,  0.0000)
  27 Cu     6.774093    5.352238   12.248904    ( 0.0000,  0.0000,  0.0000)
  28 Cu     8.085606    6.127748   14.409436    ( 0.0000,  0.0000,  0.0000)
  29 Cu     5.471144    6.122391   14.400760    ( 0.0000,  0.0000,  0.0000)
  30 Cu     5.471209    4.607213   16.550463    ( 0.0000,  0.0000,  0.0000)
  31 Cu     2.849286    4.612190   16.533042    ( 0.0000,  0.0000,  0.0000)
  32 Cu     4.172622    5.368653   18.654612    ( 0.0000,  0.0000,  0.0000)
  33 Cu     6.815830    5.361075   18.690407    ( 0.0000,  0.0000,  0.0000)
  34 Cu     8.117597    6.101982   20.944959    ( 0.0000,  0.0000,  0.0000)
  35 Cu     5.468424    6.109226   20.722587    ( 0.0000,  0.0000,  0.0000)
  36 Cu     4.883065    0.061843    6.926410    ( 0.0000,  0.0000,  0.0000)
  37 Cu     6.775119    2.352422   10.035464    ( 0.0000,  0.0000,  0.0000)
  38 Cu     8.052703    3.121516   12.221867    ( 0.0000,  0.0000,  0.0000)
  39 Cu     6.758408    0.848876   12.208625    ( 0.0000,  0.0000,  0.0000)
  40 Cu     8.088072    1.602107   14.378271    ( 0.0000,  0.0000,  0.0000)
  41 Cu     9.389649    3.854551   14.393357    ( 0.0000,  0.0000,  0.0000)
  42 Cu     5.465745    0.075772   16.566149    ( 0.0000,  0.0000,  0.0000)
  43 Cu     6.775990    2.341627   16.520527    ( 0.0000,  0.0000,  0.0000)
  44 Cu     8.098809    3.101236   18.649022    ( 0.0000,  0.0000,  0.0000)
  45 Cu     6.786030    0.853856   18.684881    ( 0.0000,  0.0000,  0.0000)
  46 Cu     8.109245    1.578842   20.775943    ( 0.0000,  0.0000,  0.0000)
  47 Cu     9.430821    3.854869   20.787060    ( 0.0000,  0.0000,  0.0000)
  48 Cu     8.078046    4.608116   10.072231    ( 0.0000,  0.0000,  0.0000)
  49 Cu     9.369803    5.379670   12.227158    ( 0.0000,  0.0000,  0.0000)
  50 Cu    10.691449    6.135448   14.377533    ( 0.0000,  0.0000,  0.0000)
  51 Cu     8.085176    4.611711   16.525490    ( 0.0000,  0.0000,  0.0000)
  52 Cu     9.385968    5.359366   18.696626    ( 0.0000,  0.0000,  0.0000)
  53 Cu    10.751685    6.103632   20.722326    ( 0.0000,  0.0000,  0.0000)
  54 Cl     6.017067    2.138563   26.035103    ( 0.0000,  0.0000,  0.0000)
  55 Cl     5.519365    4.860439    5.040981    ( 0.0000,  0.0000,  0.0000)
  56 Cl     8.111101    3.082875   22.646545    ( 0.0000,  0.0000,  0.0000)
  57 Cl     5.172514    2.344084    8.285785    ( 0.0000,  0.0000,  0.0000)
  58 Cl     7.213907    5.884851    8.212228    ( 0.0000,  0.0000,  0.0000)
  59 Cl     2.451099   -0.300453   22.756941    ( 0.0000,  0.0000,  0.0000)
  60 Cl     4.021900    2.871172   22.731142    ( 0.0000,  0.0000,  0.0000)
  61 Cl     8.660851    2.671187    8.151395    ( 0.0000,  0.0000,  0.0000)
  62 Cl     3.264396    5.834908    8.332060    ( 0.0000,  0.0000,  0.0000)
  63 Cl     5.981514   -0.099782   22.739109    ( 0.0000,  0.0000,  0.0000)
  64 Cl     6.124565    4.123346   25.710135    ( 0.0000,  0.0000,  0.0000)
  65 Cl     5.739122    0.576836    4.957761    ( 0.0000,  0.0000,  0.0000)

Unit cell:
           periodic     x           y           z      points  spacing
  1. axis:    yes    7.851007    0.000000    0.000000    45     0.1511
  2. axis:    yes    3.925503    6.799171    0.000000    45     0.1511
  3. axis:    yes    0.000000    0.000000   30.683867   175     0.1753

  Lengths:   7.851007   7.851006  30.683867
  Angles:   90.000000  90.000000  60.000001

Effective grid spacing dv^(1/3) = 0.1666

     iter     time        total  log10-change:
                         energy  eigst   dens
iter:   1 20:20:28 -4527.952455  -3.45
iter:   2 20:21:17 -4528.035390  -3.84  -2.90
iter:   3 20:22:05 -4527.941249c -4.83  -3.02
iter:   4 20:22:55 -4527.946842c -4.97  -3.36
iter:   5 20:23:45 -4527.914631c -4.84  -3.30
iter:   6 20:24:34 -4527.915893c -6.25  -3.22
iter:   7 20:25:24 -4527.928107c -5.53  -3.30
iter:   8 20:26:20 -4527.930612c -5.83  -3.78
iter:   9 20:27:25 -4527.931596c -6.08  -3.91
iter:  10 20:28:19 -4527.935064c -6.06  -3.95
iter:  11 20:29:08 -4527.931204c -6.13  -3.85
iter:  12 20:29:56 -4527.932267c -7.19  -4.36c
iter:  13 20:30:49 -4527.932020c -6.51  -4.45c
iter:  14 20:31:42 -4527.931867c -7.23  -4.54c
iter:  15 20:32:39 -4527.931560c -7.72c -4.67c

Converged after 15 iterations.

Dipole moment: (13.490224, 12.003517, 0.505419) |e|*Ang

Energy contributions relative to reference atoms: (reference = -2581817.792169)

Kinetic:       +497.125420
Potential:     -531.833692
External:        +0.000000
XC:            -4492.141445
Entropy (-ST):   -0.635662
Local:           -0.764011
Free energy:   -4528.249391
Extrapolated:  -4527.931560

Showing only first 2 kpts
 Kpt  Band  Eigenvalues  Occupancy
  0   337      0.61964    1.21072
  0   338      0.73465    0.65377
  0   339      0.77844    0.47726
  0   340      0.82398    0.33163

  1   337      0.38574    1.88171
  1   338      0.45062    1.78529
  1   339      0.47652    1.73036
  1   340      0.56928    1.43470

Fermi level: 0.66242

No gap

Forces in eV/Ang:
  0 Cu    0.00409   -0.00451    0.00797
  1 Cu    0.00593   -0.00652    0.01461
  2 Cu    0.00482    0.00303   -0.00255
  3 Cu    0.00132    0.00103   -0.00201
  4 Cu   -0.00527    0.00261    0.00286
  5 Cu    0.00237   -0.00164    0.00297
  6 Cu   -0.00094    0.00186    0.00315
  7 Cu   -0.00727    0.00222    0.00491
  8 Cu    0.00619    0.00295    0.00017
  9 Cu    0.00563   -0.00062   -0.00061
 10 Cu    0.00545    0.00483    0.00456
 11 Cu    0.00099   -0.00177   -0.00396
 12 Cu    0.00636    0.00419    0.00307
 13 Cu    0.00375    0.00327    0.00161
 14 Cu    0.00110   -0.00106   -0.00127
 15 Cu    0.00357    0.00272    0.00859
 16 Cu   -0.00454    0.00072   -0.00172
 17 Cu   -0.00422   -0.00222    0.00382
 18 Cu   -0.00350   -0.00179   -0.00178
 19 Cu   -0.00250   -0.00154   -0.00604
 20 Cu   -0.01040   -0.00200    0.00014
 21 Cu   -0.00457   -0.00741    0.00060
 22 Cu    0.00221    0.00066   -0.00285
 23 Cu   -0.00099   -0.00202    0.00141
 24 Cu    0.00269   -0.02002   -0.00328
 25 Cu   -0.00194   -0.00636   -0.00153
 26 Cu    0.00269    0.00524    0.00116
 27 Cu    0.00239   -0.00222    0.00361
 28 Cu    0.00459    0.00098   -0.00052
 29 Cu    0.00795    0.00033    0.00540
 30 Cu    0.00395    0.00401   -0.00418
 31 Cu    0.00043    0.00002   -0.00538
 32 Cu   -0.00466    0.00297    0.00514
 33 Cu    0.00194   -0.00113    0.00410
 34 Cu   -0.01537    0.00651    0.00149
 35 Cu   -0.00795    0.00431   -0.00638
 36 Cu   -0.00014    0.01268   -0.01076
 37 Cu   -0.00255    0.00574   -0.00948
 38 Cu   -0.00096   -0.00416    0.00776
 39 Cu    0.00261   -0.00522   -0.00351
 40 Cu    0.00655   -0.00627    0.00784
 41 Cu   -0.00191   -0.00285   -0.00496
 42 Cu    0.00358    0.00114   -0.00416
 43 Cu    0.00924    0.00160    0.00303
 44 Cu   -0.00756   -0.00188    0.00516
 45 Cu   -0.00402   -0.00270   -0.00172
 46 Cu   -0.01449   -0.00242   -0.00668
 47 Cu   -0.01385    0.00140   -0.00771
 48 Cu    0.00477   -0.00449   -0.00680
 49 Cu   -0.00401    0.00094   -0.00109
 50 Cu    0.00135   -0.00834    0.00041
 51 Cu    0.00822   -0.00410   -0.00051
 52 Cu    0.00091   -0.00013    0.00170
 53 Cu   -0.00437    0.00039   -0.00539
 54 Cl    0.00947    0.00809   -0.01520
 55 Cl   -0.00216    0.00182   -0.00142
 56 Cl    0.00562   -0.00606   -0.01629
 57 Cl    0.01223    0.00196   -0.00340
 58 Cl   -0.01003    0.00164   -0.00514
 59 Cl   -0.00804    0.01153   -0.00218
 60 Cl   -0.00096   -0.00477   -0.01074
 61 Cl   -0.00206    0.00040    0.01218
 62 Cl    0.00719    0.00544    0.00422
 63 Cl   -0.01190    0.00067    0.00689
 64 Cl   -0.01015   -0.00524    0.01132
 65 Cl    0.01953    0.00939    0.01830