User:   thorkong@node026.cluster
Date:   Sat Oct  8 22:07:16 2022
Arch:   x86_64
Pid:    98420
Python: 3.10.5
gpaw:   /groups/kemi/thorkong/miniconda3/envs/gpaw22/lib/python3.10/site-packages/gpaw
_gpaw:  /groups/kemi/thorkong/miniconda3/envs/gpaw22/lib/python3.10/site-packages/
        _gpaw.cpython-310-x86_64-linux-gnu.so
ase:    /groups/kemi/thorkong/miniconda3/envs/gpaw22/lib/python3.10/site-packages/ase (version 3.22.1)
numpy:  /groups/kemi/thorkong/miniconda3/envs/gpaw22/lib/python3.10/site-packages/numpy (version 1.23.0)
scipy:  /groups/kemi/thorkong/miniconda3/envs/gpaw22/lib/python3.10/site-packages/scipy (version 1.8.1)
units:  Angstrom and eV
cores: 32
OpenMP: True
OMP_NUM_THREADS: 1

Input parameters:
  basis: dzp
  kpts: [4 4 1]
  mode: {ecut: 600.0,
         name: pw}
  xc: BEEF-vdW

System changes: positions, numbers, cell, pbc, initial_charges, initial_magmoms

Initialize ...

Cu-setup:
  name: Copper
  id: f1c4d45d90492f1bbfdcb091e8418fdf
  Z: 29.0
  valence: 11
  core: 18
  charge: 0.0
  file: /groups/kemi/thorkong/miniconda3/envs/gpaw22/share/gpaw/Cu.PBE.gz
  compensation charges: gauss, rc=0.33, lmax=2
  cutoffs: 2.06(filt), 2.43(core),
  valence states:
                energy  radius
    4s(1.00)    -4.609   1.164
    4p(0.00)    -0.698   1.164
    3d(10.00)    -5.039   1.058
    *s          22.603   1.164
    *p          26.513   1.164
    *d          22.172   1.058

  LCAO basis set for Cu:
    Name: dzp
    File: /groups/kemi/thorkong/miniconda3/envs/gpaw22/share/gpaw/Cu.dzp.basis.gz
    Number of radial functions: 5
    Number of spherical harmonics: 15
      l=0, rc=8.9688 Bohr: 4s-sz confined orbital
      l=2, rc=5.1719 Bohr: 3d-sz confined orbital
      l=0, rc=5.3281 Bohr: 4s-dz split-valence wave
      l=2, rc=3.1406 Bohr: 3d-dz split-valence wave
      l=1, rc=8.9688 Bohr: p-type Gaussian polarization

Cl-setup:
  name: Chlorine
  id: 726897f06f34e53cf8e33b5885a02604
  Z: 17.0
  valence: 7
  core: 10
  charge: 0.0
  file: /groups/kemi/thorkong/miniconda3/envs/gpaw22/share/gpaw/Cl.PBE.gz
  compensation charges: gauss, rc=0.25, lmax=2
  cutoffs: 1.40(filt), 1.49(core),
  valence states:
                energy  radius
    3s(2.00)   -20.689   0.794
    3p(5.00)    -8.594   0.794
    *s           6.523   0.794
    *p          18.617   0.794
    *d           0.000   0.794

  LCAO basis set for Cl:
    Name: dzp
    File: /groups/kemi/thorkong/miniconda3/envs/gpaw22/share/gpaw/Cl.dzp.basis.gz
    Number of radial functions: 5
    Number of spherical harmonics: 13
      l=0, rc=5.1719 Bohr: 3s-sz confined orbital
      l=1, rc=6.2656 Bohr: 3p-sz confined orbital
      l=0, rc=2.8281 Bohr: 3s-dz split-valence wave
      l=1, rc=3.5156 Bohr: 3p-dz split-valence wave
      l=2, rc=6.2656 Bohr: d-type Gaussian polarization

Reference energy: -2556707.893378

Spin-paired calculation

Convergence criteria:
 Maximum [total energy] change in last 3 cyles: 0.0005 eV / electron
 Maximum integral of absolute [dens]ity change: 0.0001 electrons / valence electron
 Maximum integral of absolute [eigenst]ate change: 4e-08 eV^2 / valence electron
 Maximum number of scf [iter]ations: 333
 (Square brackets indicate name in SCF output, whereas a 'c' in
 the SCF output indicates the quantity has converged.)

Symmetries present (total): 1

  ( 1  0  0)
  ( 0  1  0)
  ( 0  0  1)

16 k-points: 4 x 4 x 1 Monkhorst-Pack grid
8 k-points in the irreducible part of the Brillouin zone
       k-points in crystal coordinates                weights
   0:     0.12500000   -0.37500000    0.00000000          2/16
   1:     0.12500000   -0.12500000    0.00000000          2/16
   2:     0.12500000    0.12500000    0.00000000          2/16
   3:     0.12500000    0.37500000    0.00000000          2/16
   4:     0.37500000   -0.37500000    0.00000000          2/16
   5:     0.37500000   -0.12500000    0.00000000          2/16
   6:     0.37500000    0.12500000    0.00000000          2/16
   7:     0.37500000    0.37500000    0.00000000          2/16

Wave functions: Plane wave expansion
  Cutoff energy: 600.000 eV
  Number of coefficients (min, max): 54614, 54705
  Pulay-stress correction: 0.000000 eV/Ang^3 (de/decut=0.000000)
  Using FFTW library
  ScaLapack parameters: grid=2x2, blocksize=64
  Wavefunction extrapolation:
    Improved wavefunction reuse through dual PAW basis

Occupation numbers: Fermi-Dirac: width=0.1000 eV

Eigensolver
   Davidson(niter=2)

Densities:
  Coarse grid: 45*45*175 grid
  Fine grid: 90*90*350 grid
  Total Charge: 0.000000

Density mixing:
  Method: separate
  Backend: pulay
  Linear mixing parameter: 0.05
  Mixing with 5 old densities
  Damping of long wave oscillations: 50

Hamiltonian:
  XC and Coulomb potentials evaluated on a 90*90*350 grid
  Using the BEEF-vdW Exchange-Correlation functional
  External potential:
    NoExternalPotential

XC parameters: BEEF-vdW with 2 nearest neighbor stencil

Total number of cores used: 32
Parallelization over k-points: 8
Domain decomposition: 1 x 1 x 4
                      2 x 2 x 8 (xc only)

Number of atoms: 64
Number of atomic orbitals: 940
Number of bands in calculation: 403
Number of valence electrons: 664
Bands to converge: occupied

... initialized

Initializing position-dependent things.

Density initialized from atomic densities
Creating initial wave functions:
  403 bands from LCAO basis set

                             Cl     Cl

                 Cl      Cl
          Cl            Cu    Cu     Cu
                   Cu     Cu    Cu
               Cu    Cu     Cu
                    Cu     Cu    Cu
                Cu    Cu    Cu
           Cu    Cu     Cu
                Cu     Cu    Cu
            Cu    Cu    CCu
       Cu     Cu    Cu        Cu     Cu
                   Cu     Cu    Cu
               Cu    Cu     Cu
                    Cu     Cu    Cu
                Cu    Cu    Cu
           Cu    Cu     Cu
                Cu     Cu    Cu
            Cu    Cu     Cu
       Cu     Cu    Cu            Cl
                   Cl      Cl

[...]

Positions:
   0 Cu     2.876904   -0.070231   10.051394    ( 0.0000,  0.0000,  0.0000)
   1 Cu     4.190349    2.199946   10.011000    ( 0.0000,  0.0000,  0.0000)
   2 Cu     0.259979   -0.045657    9.986775    ( 0.0000,  0.0000,  0.0000)
   3 Cu     1.600944    2.212471    9.912055    ( 0.0000,  0.0000,  0.0000)
   4 Cu     2.882544    2.999900   12.122170    ( 0.0000,  0.0000,  0.0000)
   5 Cu     1.581856    0.734618   12.132651    ( 0.0000,  0.0000,  0.0000)
   6 Cu     5.517569    2.986884   12.120102    ( 0.0000,  0.0000,  0.0000)
   7 Cu     4.209134    0.733201   12.151872    ( 0.0000,  0.0000,  0.0000)
   8 Cu     5.513084    1.506087   14.287297    ( 0.0000,  0.0000,  0.0000)
   9 Cu     6.824471    3.765126   14.268607    ( 0.0000,  0.0000,  0.0000)
  10 Cu     2.895291    1.503931   14.269080    ( 0.0000,  0.0000,  0.0000)
  11 Cu     4.202361    3.768532   14.259898    ( 0.0000,  0.0000,  0.0000)
  12 Cu     2.893322    0.011170   16.414194    ( 0.0000,  0.0000,  0.0000)
  13 Cu     4.196821    2.280037   16.420049    ( 0.0000,  0.0000,  0.0000)
  14 Cu     0.270599    0.006148   16.416658    ( 0.0000,  0.0000,  0.0000)
  15 Cu     1.583735    2.273455   16.405157    ( 0.0000,  0.0000,  0.0000)
  16 Cu     2.875707    3.048776   18.572346    ( 0.0000,  0.0000,  0.0000)
  17 Cu     1.568534    0.776320   18.542181    ( 0.0000,  0.0000,  0.0000)
  18 Cu     5.504411    3.057811   18.569174    ( 0.0000,  0.0000,  0.0000)
  19 Cu     4.202826    0.791333   18.544011    ( 0.0000,  0.0000,  0.0000)
  20 Cu     5.498393    1.556589   20.716682    ( 0.0000,  0.0000,  0.0000)
  21 Cu     6.830496    3.842309   20.682916    ( 0.0000,  0.0000,  0.0000)
  22 Cu     2.842256    1.522040   20.666065    ( 0.0000,  0.0000,  0.0000)
  23 Cu     4.184721    3.781674   20.745159    ( 0.0000,  0.0000,  0.0000)
  24 Cu     5.523486    4.487107    9.971302    ( 0.0000,  0.0000,  0.0000)
  25 Cu     2.904264    4.499584    9.999494    ( 0.0000,  0.0000,  0.0000)
  26 Cu     4.221252    5.267475   12.125245    ( 0.0000,  0.0000,  0.0000)
  27 Cu     6.819902    5.252436   12.143672    ( 0.0000,  0.0000,  0.0000)
  28 Cu     8.128243    6.033127   14.275071    ( 0.0000,  0.0000,  0.0000)
  29 Cu     5.514712    6.038498   14.280899    ( 0.0000,  0.0000,  0.0000)
  30 Cu     5.508278    4.539432   16.401631    ( 0.0000,  0.0000,  0.0000)
  31 Cu     2.894703    4.540777   16.414778    ( 0.0000,  0.0000,  0.0000)
  32 Cu     4.202610    5.296544   18.558705    ( 0.0000,  0.0000,  0.0000)
  33 Cu     6.811591    5.310465   18.538411    ( 0.0000,  0.0000,  0.0000)
  34 Cu     8.144718    6.114141   20.635046    ( 0.0000,  0.0000,  0.0000)
  35 Cu     5.515948    6.039091   20.669499    ( 0.0000,  0.0000,  0.0000)
  36 Cu     5.504197    0.005690   10.013680    ( 0.0000,  0.0000,  0.0000)
  37 Cu     6.836520    2.263195    9.940898    ( 0.0000,  0.0000,  0.0000)
  38 Cu     8.146237    2.997275   12.110948    ( 0.0000,  0.0000,  0.0000)
  39 Cu     6.817689    0.748708   12.124617    ( 0.0000,  0.0000,  0.0000)
  40 Cu     8.125627    1.505476   14.268654    ( 0.0000,  0.0000,  0.0000)
  41 Cu     9.437141    3.772058   14.278737    ( 0.0000,  0.0000,  0.0000)
  42 Cu     5.506775    0.006353   16.406420    ( 0.0000,  0.0000,  0.0000)
  43 Cu     6.819177    2.277169   16.427410    ( 0.0000,  0.0000,  0.0000)
  44 Cu     8.138790    3.045555   18.565134    ( 0.0000,  0.0000,  0.0000)
  45 Cu     6.800646    0.777914   18.559977    ( 0.0000,  0.0000,  0.0000)
  46 Cu     8.115491    1.546136   20.688627    ( 0.0000,  0.0000,  0.0000)
  47 Cu     9.420759    3.831006   20.773545    ( 0.0000,  0.0000,  0.0000)
  48 Cu     8.178119    4.522404   10.012257    ( 0.0000,  0.0000,  0.0000)
  49 Cu     9.450737    5.269180   12.140937    ( 0.0000,  0.0000,  0.0000)
  50 Cu    10.749560    6.039523   14.265566    ( 0.0000,  0.0000,  0.0000)
  51 Cu     8.126275    4.541280   16.418804    ( 0.0000,  0.0000,  0.0000)
  52 Cu     9.439372    5.309655   18.553893    ( 0.0000,  0.0000,  0.0000)
  53 Cu    10.761389    6.090345   20.694568    ( 0.0000,  0.0000,  0.0000)
  54 Cl     3.892780    1.859684   23.268410    ( 0.0000,  0.0000,  0.0000)
  55 Cl     7.120305    4.184000    7.410567    ( 0.0000,  0.0000,  0.0000)
  56 Cl    10.817387    4.804565   23.246760    ( 0.0000,  0.0000,  0.0000)
  57 Cl     0.200177    1.243830    7.436697    ( 0.0000,  0.0000,  0.0000)
  58 Cl     9.917358    5.751062    7.435399    ( 0.0000,  0.0000,  0.0000)
  59 Cl     1.106172    0.288394   23.248170    ( 0.0000,  0.0000,  0.0000)
  60 Cl     7.781504    5.407198   23.297715    ( 0.0000,  0.0000,  0.0000)
  61 Cl     3.232692    0.621771    7.380078    ( 0.0000,  0.0000,  0.0000)
  62 Cl     6.862020    2.499892   23.198661    ( 0.0000,  0.0000,  0.0000)
  63 Cl     4.150783    3.528700    7.498432    ( 0.0000,  0.0000,  0.0000)

Unit cell:
           periodic     x           y           z      points  spacing
  1. axis:    yes    7.851007    0.000000    0.000000    45     0.1511
  2. axis:    yes    3.925503    6.799171    0.000000    45     0.1511
  3. axis:    yes    0.000000    0.000000   30.683867   175     0.1753

[...]
  8 Cu    0.00169    0.01200   -0.02140
  9 Cu   -0.00526   -0.01249   -0.02042
 10 Cu    0.00426    0.01071    0.00059
 11 Cu    0.00638    0.00727   -0.02638
 12 Cu   -0.00995   -0.00588    0.00092
 13 Cu    0.00600    0.01349    0.01717
 14 Cu   -0.01101    0.01023    0.01339
 15 Cu   -0.00851   -0.00038    0.02203
 16 Cu    0.00485   -0.00542    0.11766
 17 Cu    0.02901   -0.00837    0.13385
 18 Cu   -0.01520   -0.02130    0.12862
 19 Cu   -0.02581   -0.00989    0.12676
 20 Cu    0.00758    0.06090    0.52982
 21 Cu   -0.00784   -0.20194    0.62898
 22 Cu    0.24932    0.12665    0.66767
 23 Cu   -0.11765    0.11752    0.40828
 24 Cu   -0.01247   -0.06018   -0.52482
 25 Cu    0.01913    0.00040   -0.64653
 26 Cu   -0.01979    0.02146   -0.15445
 27 Cu    0.02218    0.01138   -0.12633
 28 Cu    0.00763    0.00808   -0.00688
 29 Cu   -0.00978    0.00414   -0.02458
 30 Cu   -0.00246   -0.01551    0.01856
 31 Cu   -0.00918   -0.00961    0.02927
 32 Cu   -0.02061    0.01542    0.11303
 33 Cu    0.01565    0.01420    0.12989
 34 Cu   -0.11218   -0.23857    0.77864
 35 Cu   -0.11111    0.25348    0.60896
 36 Cu    0.11373   -0.25527   -0.60066
 37 Cu    0.11479   -0.12016   -0.40818
 38 Cu   -0.00814    0.00343   -0.11013
 39 Cu    0.02404   -0.01570   -0.10469
 40 Cu    0.01083    0.00621   -0.02615
 41 Cu    0.00632   -0.00022   -0.01487
 42 Cu    0.00939   -0.00257    0.02361
 43 Cu   -0.00746   -0.00823    0.02682
 44 Cu    0.00251    0.02248    0.15175
 45 Cu    0.01831   -0.02081    0.16110
 46 Cu   -0.01224   -0.00914    0.63687
 47 Cu    0.13599    0.05942    0.25072
 48 Cu   -0.24779   -0.12519   -0.65229
 49 Cu   -0.02464    0.00640   -0.12417
 50 Cu    0.01242   -0.00965   -0.00526
 51 Cu   -0.00739   -0.01241    0.00119
 52 Cu   -0.00635   -0.01843    0.11343
 53 Cu   -0.04044   -0.22922    0.51884
 54 Cl   -0.14697   -0.23273   -1.17655
 55 Cl    0.15601    0.23375    1.16931
 56 Cl   -0.04591    0.03174   -1.42113
 57 Cl    0.04879   -0.01269    1.41833
 58 Cl   -0.29242    0.06978    1.17415
 59 Cl    0.29084   -0.06156   -1.16619
 60 Cl   -0.05185    0.25135   -1.14008
 61 Cl    0.05043   -0.25852    1.12307
 62 Cl   -0.03292    0.01674   -1.34747
 63 Cl    0.02312   -0.04015    1.35665

System changes: positions

[...]

Density initialized from wave functions

[...]

                 Cl      Cl
          Cl            Cu    Cu     Cu
                   Cu     Cu    Cu
               Cu    Cu     Cu
                    Cu     Cu    Cu
                Cu    Cu    Cu
           Cu    Cu     Cu
                Cu     Cu    Cu
            Cu    Cu     Cu
       Cu     Cu    Cu  Cu    Cu     Cu
                   Cu     Cu    Cu
               Cu    Cu     Cu
                    Cu     Cu    Cu
                Cu    Cu    Cu
           Cu    Cu     Cu
                Cu     Cu    Cu
            Cu    Cu     Cu
       Cu     Cu    Cu            Cl
                   Cl      Cl

        Cl     Cl

[...]

     iter     time        total  log10-change:
                         energy  eigst   dens
iter:   1 22:52:20 -4546.700747  -0.91
iter:   2 22:53:10 -4547.428633  +0.02  -1.05
iter:   3 22:54:06 -4471.845270  -0.52  -1.21
iter:   4 22:55:00 -4474.335451  -1.61  -1.58
iter:   5 22:55:54 -4455.422774  -2.10  -1.57
iter:   6 22:57:03 -4452.149177  -2.52  -1.78
iter:   7 22:57:58 -4471.250631  -1.44  -1.87
iter:   8 22:58:52 -4460.364768  -2.54  -1.43
iter:   9 22:59:46 -4451.617042  -2.43  -1.65
iter:  10 23:00:35 -4458.717132  -2.26  -2.13
iter:  11 23:01:30 -4452.536596  -2.88  -1.62
iter:  12 23:02:24 -4451.371885  -3.73  -1.86
iter:  13 23:03:19 -4450.799164  -3.73  -1.95
iter:  14 23:04:22 -4450.389723  -3.44  -2.05
iter:  15 23:05:17 -4450.693675  -2.61  -2.02
iter:  16 23:06:13 -4449.216786  -3.29  -1.95
iter:  17 23:07:00 -4449.234183  -3.90  -2.53
iter:  18 23:07:47 -4449.165028c -4.18  -2.55
iter:  19 23:08:38 -4449.155187c -4.21  -2.68
iter:  20 23:09:22 -4449.224986c -4.39  -2.80
iter:  21 23:10:19 -4449.167938c -5.54  -2.54
iter:  22 23:11:11 -4449.146015c -4.36  -2.71
iter:  23 23:12:04 -4449.136976c -5.68  -2.77
iter:  24 23:13:08 -4449.134299c -4.77  -2.87
iter:  25 23:14:08 -4449.126092c -5.45  -3.07
iter:  26 23:15:18 -4449.125025c -5.70  -3.49
iter:  27 23:16:15 -4449.123569c -6.10  -3.74
iter:  28 23:17:03 -4449.124835c -6.43  -3.77
iter:  29 23:18:04 -4449.124312c -6.39  -3.83
iter:  30 23:19:11 -4449.124452c -6.70  -3.80
iter:  31 23:20:18 -4449.124283c -7.78c -4.11c

[...]

                             Cl
                                    Cl
                 Cl     CCl   Cu     Cu
          Cl
                   Cu     Cu    Cu
               Cu    Cu     Cu
                    Cu     Cu    Cu
                Cu    Cu     Cu
           Cu    Cu     Cu
                Cu     Cu    Cu
            Cu    Cu     Cu
       Cu     Cu    Cu  Cu    Cu     Cu
                   Cu     Cu    Cu
               Cu    Cu     Cu
                    Cu     Cu    Cu
                Cu    Cu    Cu
           Cu    Cu     Cu
                Cu     Cu    Cu
            Cu    Cu     Cu
                                  Cl
       Cu     Cu   CCu     Cl
        Cl
               Cl

[...]

                             Cl
                                    Cl
                 Cl     CCl   Cu     Cu
          Cl       Cu     Cu    Cu

               Cu   CCu    CCu   Cu

                Cu    Cu     Cu
           Cu   CCu    CCu   Cu

            Cu    Cu    CCu   Cu     Cu
       Cu     Cu   CCu    Cu    Cu

               Cu   CCu    CCu   Cu
               Cu     Cu    Cu

[...]

            Cu    Cu     Cu       Cl
       Cu     Cu   CCu     Cl
        Cl
               Cl

[...]

                             Cl
                                    Cl
                 Cl     CCl   Cu     Cu
          Cl
                   Cu     Cu    Cu
               Cu    Cu     Cu
                    Cu     Cu    Cu
                Cu    Cu     Cu
           Cu    Cu     Cu
                Cu     Cu    Cu
            Cu    Cu     Cu
       Cu     Cu    Cu  Cu    Cu     Cu
                   Cu     Cu    Cu
               Cu    Cu     Cu
                    Cu     Cu    Cu
               Cu     Cu    Cu
           Cu    Cu     Cu
                Cu     Cu    Cu
            Cu    Cu     Cu
                                  Cl
       Cu     Cu   CCu     Cl
        Cl
               Cl

[...]

               Cu   CCu    CCu   Cu
                      Cu     Cu
                Cu
           Cu   CCu    CCu   Cu

[...]

               Cu   CCu    CCu   Cu
                            Cu
               Cu     Cu
           Cu   CCu    CCu   Cu

[...]

               Cu   CCu    CCu   Cu
                      Cu    Cu
                Cu
           Cu   CCu    CCu   Cu

[...]

               Cu   CCu    CCu   Cu
                             Cu
                Cu    Cu
           Cu   CCu    CCu   Cu

[...]

           Cu   CuCu   CCu   Cu

[...]

               Cu   CCu   CuCu   Cu

[...]

System changes: positions

Initializing position-dependent things.

Density initialized from wave functions

                             Cl
                                    Cl
                 Cl     CCl   Cu     Cu
         Cl        Cu     Cu    Cu

              Cu    CCu    CCu   Cu
               Cu     Cu     Cu

[...]

            Cu    Cu    CCu   Cu     Cu
       Cu     Cu   CCu    Cu    Cu

               Cu   CCu    CCu   Cu

               Cu     Cu     Cu
           Cu   CCu    CCu    Cu

            Cu    Cu     Cu        Cl
       Cu     Cu   CCu     Cl
        Cl
               Cl

Positions:
   0 Cu     2.860538   -0.091177   10.140975    ( 0.0000,  0.0000,  0.0000)
   1 Cu     4.198137    2.169925    9.915085    ( 0.0000,  0.0000,  0.0000)
   2 Cu     0.258842   -0.074195   10.032200    ( 0.0000,  0.0000,  0.0000)
   3 Cu     1.603638    2.206228    9.942835    ( 0.0000,  0.0000,  0.0000)
   4 Cu     2.879826    2.987659   12.066383    ( 0.0000,  0.0000,  0.0000)
   5 Cu     1.573693    0.724186   12.168458    ( 0.0000,  0.0000,  0.0000)
   6 Cu     5.511947    2.976920   12.052919    ( 0.0000,  0.0000,  0.0000)
   7 Cu     4.209955    0.744585   12.160974    ( 0.0000,  0.0000,  0.0000)
   8 Cu     5.513907    1.514797   14.289760    ( 0.0000,  0.0000,  0.0000)
   9 Cu     6.819322    3.753013   14.262254    ( 0.0000,  0.0000,  0.0000)
  10 Cu     2.898965    1.512279   14.270882    ( 0.0000,  0.0000,  0.0000)
  11 Cu     4.205476    3.764799   14.222275    ( 0.0000,  0.0000,  0.0000)
  12 Cu     2.889879    0.012778   16.413877    ( 0.0000,  0.0000,  0.0000)
  13 Cu     4.201362    2.291728   16.424609    ( 0.0000,  0.0000,  0.0000)
  14 Cu     0.263444    0.008173   16.427676    ( 0.0000,  0.0000,  0.0000)
  15 Cu     1.577847    2.279178   16.409508    ( 0.0000,  0.0000,  0.0000)
  16 Cu     2.871340    3.066939   18.560049    ( 0.0000,  0.0000,  0.0000)
  17 Cu     1.564309    0.792543   18.534568    ( 0.0000,  0.0000,  0.0000)
  18 Cu     5.508295    3.067663   18.634091    ( 0.0000,  0.0000,  0.0000)
  19 Cu     4.214506    0.807509   18.529824    ( 0.0000,  0.0000,  0.0000)
  20 Cu     5.500328    1.525589   20.782262    ( 0.0000,  0.0000,  0.0000)
  21 Cu     6.821318    3.872563   20.772354    ( 0.0000,  0.0000,  0.0000)
  22 Cu     2.826096    1.541709   20.591350    ( 0.0000,  0.0000,  0.0000)
  23 Cu     4.208597    3.790792   20.765506    ( 0.0000,  0.0000,  0.0000)
  24 Cu     5.519049    4.518498    9.905129    ( 0.0000,  0.0000,  0.0000)
  25 Cu     2.870007    4.480851    9.945713    ( 0.0000,  0.0000,  0.0000)
  26 Cu     4.223040    5.254875   12.088904    ( 0.0000,  0.0000,  0.0000)
  27 Cu     6.806090    5.236664   12.157161    ( 0.0000,  0.0000,  0.0000)
  28 Cu     8.130842    6.032101   14.272853    ( 0.0000,  0.0000,  0.0000)
  29 Cu     5.511819    6.028565   14.291100    ( 0.0000,  0.0000,  0.0000)
  30 Cu     5.506625    4.530024   16.396819    ( 0.0000,  0.0000,  0.0000)
  31 Cu     2.894177    4.539880   16.397235    ( 0.0000,  0.0000,  0.0000)
  32 Cu     4.202855    5.290323   18.541116    ( 0.0000,  0.0000,  0.0000)
  33 Cu     6.810471    5.299775   18.525525    ( 0.0000,  0.0000,  0.0000)
  34 Cu     8.159318    6.135670   20.545235    ( 0.0000,  0.0000,  0.0000)
  35 Cu     5.527660    6.026768   20.578847    ( 0.0000,  0.0000,  0.0000)
  36 Cu     5.492700    0.017654   10.108043    ( 0.0000,  0.0000,  0.0000)
  37 Cu     6.811459    2.253390    9.920883    ( 0.0000,  0.0000,  0.0000)
  38 Cu     8.148929    2.977868   12.126484    ( 0.0000,  0.0000,  0.0000)
  39 Cu     6.817363    0.754710   12.145831    ( 0.0000,  0.0000,  0.0000)
  40 Cu     8.126454    1.505033   14.289617    ( 0.0000,  0.0000,  0.0000)
  41 Cu     9.442805    3.765753   14.277183    ( 0.0000,  0.0000,  0.0000)
  42 Cu     5.508912    0.016347   16.395862    ( 0.0000,  0.0000,  0.0000)
  43 Cu     6.815147    2.279938   16.464858    ( 0.0000,  0.0000,  0.0000)
  44 Cu     8.140570    3.056582   18.621121    ( 0.0000,  0.0000,  0.0000)
  45 Cu     6.797404    0.789598   18.599144    ( 0.0000,  0.0000,  0.0000)
  46 Cu     8.150779    1.562381   20.743110    ( 0.0000,  0.0000,  0.0000)
  47 Cu     9.416069    3.837614   20.744687    ( 0.0000,  0.0000,  0.0000)
  48 Cu     8.194455    4.503101   10.094692    ( 0.0000,  0.0000,  0.0000)
  49 Cu     9.456297    5.252036   12.152268    ( 0.0000,  0.0000,  0.0000)
  50 Cu    10.757190    6.036853   14.259354    ( 0.0000,  0.0000,  0.0000)
  51 Cu     8.121750    4.532511   16.415961    ( 0.0000,  0.0000,  0.0000)
  52 Cu     9.446695    5.320638   18.518907    ( 0.0000,  0.0000,  0.0000)
  53 Cu    10.761143    6.118104   20.656679    ( 0.0000,  0.0000,  0.0000)
  54 Cl     3.896688    1.799972   22.557906    ( 0.0000,  0.0000,  0.0000)
  55 Cl     7.121465    4.239392    8.130783    ( 0.0000,  0.0000,  0.0000)
  56 Cl    10.750811    4.729827   22.508813    ( 0.0000,  0.0000,  0.0000)
  57 Cl     0.269949    1.310435    8.179934    ( 0.0000,  0.0000,  0.0000)
  58 Cl     9.886334    5.830367    8.145490    ( 0.0000,  0.0000,  0.0000)
  59 Cl     1.131936    0.209564   22.543442    ( 0.0000,  0.0000,  0.0000)
  60 Cl     7.710300    5.292367   22.567901    ( 0.0000,  0.0000,  0.0000)
  61 Cl     3.310002    0.747892    8.120087    ( 0.0000,  0.0000,  0.0000)
  62 Cl     6.860302    2.363563   22.583937    ( 0.0000,  0.0000,  0.0000)
  63 Cl     4.158299    3.677417    8.104763    ( 0.0000,  0.0000,  0.0000)

Unit cell:
           periodic     x           y           z      points  spacing
  1. axis:    yes    7.851007    0.000000    0.000000    45     0.1511
  2. axis:    yes    3.925503    6.799171    0.000000    45     0.1511
  3. axis:    yes    0.000000    0.000000   30.683867   175     0.1753

  Lengths:   7.851007   7.851006  30.683867
  Angles:   90.000000  90.000000  60.000001

Effective grid spacing dv^(1/3) = 0.1666

     iter     time        total  log10-change:
                         energy  eigst   dens
iter:   1 04:28:47 -4454.916463  -4.29
iter:   2 04:29:50 -4454.915330  -5.04  -3.54
iter:   3 04:30:46 -4454.912287c -5.45  -3.49
iter:   4 04:31:37 -4454.911308c -6.19  -3.75
iter:   5 04:32:31 -4454.910894c -5.86  -3.98
iter:   6 04:33:30 -4454.910976c -6.43  -4.18c
iter:   7 04:34:40 -4454.910974c -7.39  -4.43c
iter:   8 04:35:45 -4454.911006c -7.24  -4.49c
iter:   9 04:36:33 -4454.910951c -7.46c -4.66c

Converged after 9 iterations.

Dipole moment: (-16.316596, -9.490777, -0.002110) |e|*Ang

Energy contributions relative to reference atoms: (reference = -2556707.893378)

Kinetic:       +517.749218
Potential:     -542.112275
External:        +0.000000
XC:            -4429.654073
Entropy (-ST):   -0.501286
Local:           -0.643177
Free energy:   -4455.161595
Extrapolated:  -4454.910951

Showing only first 2 kpts
 Kpt  Band  Eigenvalues  Occupancy
  0   330      0.26699    1.34283
  0   331      0.44065    0.52929
  0   332      0.50030    0.33083
  0   333      0.53289    0.25034

  1   330     -0.10898    1.97746
  1   331     -0.03152    1.95173
  1   332      0.20318    1.58915
  1   333      0.30038    1.18808

Fermi level: 0.33845

No gap

Forces in eV/Ang:
  0 Cu    0.00081   -0.00287    0.00293
  1 Cu    0.00085    0.00318    0.00819
  2 Cu   -0.00167   -0.01308    0.00332
  3 Cu   -0.00244    0.00482   -0.00427
  4 Cu   -0.00515   -0.00014    0.00165
  5 Cu    0.00124   -0.00282   -0.00823
  6 Cu    0.00045    0.00145   -0.00071
  7 Cu    0.00493   -0.00081   -0.00550
  8 Cu    0.00215    0.00215    0.00955
  9 Cu    0.00152    0.00194    0.00386
 10 Cu   -0.00042   -0.00034    0.00381
 11 Cu    0.00084   -0.00371    0.00228
 12 Cu    0.00270   -0.00218   -0.00867
 13 Cu   -0.00164   -0.00238   -0.00288
 14 Cu   -0.00024    0.00031   -0.00132
 15 Cu    0.00083    0.00072   -0.00588
 16 Cu   -0.00088   -0.00906   -0.00367
 17 Cu    0.00079   -0.00384   -0.00270
 18 Cu   -0.00123   -0.00077   -0.00137
 19 Cu    0.00049   -0.00776   -0.00195
 20 Cu   -0.00281   -0.00070    0.00932
 21 Cu    0.00160    0.00171   -0.00614
 22 Cu   -0.00423   -0.00422   -0.00273
 23 Cu   -0.00216   -0.00827   -0.00134
 24 Cu    0.00270    0.00172   -0.00803
 25 Cu   -0.00650    0.00962   -0.00199
 26 Cu    0.00188    0.00530   -0.00322
 27 Cu   -0.00098    0.01061   -0.00269
 28 Cu   -0.00293    0.00174    0.00933
 29 Cu   -0.00266    0.00607    0.00762
 30 Cu   -0.00205   -0.00187   -0.00882
 31 Cu    0.00232    0.00101   -0.00486
 32 Cu    0.00104   -0.00022   -0.00002
 33 Cu   -0.00706   -0.00003    0.00589
 34 Cu   -0.00554   -0.00755    0.01622
 35 Cu    0.00285   -0.00335    0.01277
 36 Cu   -0.00113    0.00175   -0.01348
 37 Cu   -0.00026    0.00968    0.00161
 38 Cu    0.00090    0.00888    0.00223
 39 Cu   -0.00063   -0.00121   -0.00100
 40 Cu   -0.00301   -0.00080    0.00547
 41 Cu   -0.00105   -0.00081    0.00600
 42 Cu    0.00247   -0.00625   -0.00800
 43 Cu   -0.00117    0.00358   -0.00153
 44 Cu    0.00594   -0.00025   -0.00260
 45 Cu   -0.00163   -0.00605    0.00131
 46 Cu    0.00553   -0.00900    0.00190
 47 Cu    0.00376   -0.00196    0.00507
 48 Cu    0.00694    0.00492    0.00651
 49 Cu   -0.00150    0.00414    0.00150
 50 Cu    0.00012   -0.00078    0.00175
 51 Cu    0.00049    0.00025   -0.00297
 52 Cu    0.00049    0.00132    0.00506
 53 Cu    0.00150    0.00812   -0.00100
 54 Cl   -0.00555   -0.01851   -0.00076
 55 Cl    0.00530    0.01690    0.00057
 56 Cl    0.01545   -0.00753    0.00613
 57 Cl   -0.01781    0.00937   -0.01006
 58 Cl    0.01508    0.01618   -0.00447
 59 Cl   -0.01477   -0.01449    0.00867
 60 Cl   -0.00808   -0.00799   -0.01224
 61 Cl    0.01217    0.01530   -0.00260
 62 Cl   -0.00395   -0.01123   -0.01719
 63 Cl    0.00371    0.01148    0.02009