User:   thorkong@node065.cluster
Date:   Mon Oct 17 14:45:29 2022
Arch:   x86_64
Pid:    96010
Python: 3.10.5
gpaw:   /groups/kemi/thorkong/miniconda3/envs/gpaw22/lib/python3.10/site-packages/gpaw
_gpaw:  /groups/kemi/thorkong/miniconda3/envs/gpaw22/lib/python3.10/site-packages/
        _gpaw.cpython-310-x86_64-linux-gnu.so
ase:    /groups/kemi/thorkong/miniconda3/envs/gpaw22/lib/python3.10/site-packages/ase (version 3.22.1)
numpy:  /groups/kemi/thorkong/miniconda3/envs/gpaw22/lib/python3.10/site-packages/numpy (version 1.23.0)
scipy:  /groups/kemi/thorkong/miniconda3/envs/gpaw22/lib/python3.10/site-packages/scipy (version 1.8.1)
units:  Angstrom and eV
cores: 32
OpenMP: True
OMP_NUM_THREADS: 1

Input parameters:
  basis: dzp
  kpts: [4 4 1]
  mode: {ecut: 600.0,
         name: pw}
  xc: BEEF-vdW

System changes: positions, numbers, cell, pbc, initial_charges, initial_magmoms

Initialize ...

Cu-setup:
  name: Copper
  id: f1c4d45d90492f1bbfdcb091e8418fdf
  Z: 29.0
  valence: 11
  core: 18
  charge: 0.0
  file: /groups/kemi/thorkong/miniconda3/envs/gpaw22/share/gpaw/Cu.PBE.gz
  compensation charges: gauss, rc=0.33, lmax=2
  cutoffs: 2.06(filt), 2.43(core),
  valence states:
                energy  radius
    4s(1.00)    -4.609   1.164
    4p(0.00)    -0.698   1.164
    3d(10.00)    -5.039   1.058
    *s          22.603   1.164
    *p          26.513   1.164
    *d          22.172   1.058

  LCAO basis set for Cu:
    Name: dzp
    File: /groups/kemi/thorkong/miniconda3/envs/gpaw22/share/gpaw/Cu.dzp.basis.gz
    Number of radial functions: 5
    Number of spherical harmonics: 15
      l=0, rc=8.9688 Bohr: 4s-sz confined orbital
      l=2, rc=5.1719 Bohr: 3d-sz confined orbital
      l=0, rc=5.3281 Bohr: 4s-dz split-valence wave
      l=2, rc=3.1406 Bohr: 3d-dz split-valence wave
      l=1, rc=8.9688 Bohr: p-type Gaussian polarization

Cl-setup:
  name: Chlorine
  id: 726897f06f34e53cf8e33b5885a02604
  Z: 17.0
  valence: 7
  core: 10
  charge: 0.0
  file: /groups/kemi/thorkong/miniconda3/envs/gpaw22/share/gpaw/Cl.PBE.gz
  compensation charges: gauss, rc=0.25, lmax=2
  cutoffs: 1.40(filt), 1.49(core),
  valence states:
                energy  radius
    3s(2.00)   -20.689   0.794
    3p(5.00)    -8.594   0.794
    *s           6.523   0.794
    *p          18.617   0.794
    *d           0.000   0.794

  LCAO basis set for Cl:
    Name: dzp
    File: /groups/kemi/thorkong/miniconda3/envs/gpaw22/share/gpaw/Cl.dzp.basis.gz
    Number of radial functions: 5
    Number of spherical harmonics: 13
      l=0, rc=5.1719 Bohr: 3s-sz confined orbital
      l=1, rc=6.2656 Bohr: 3p-sz confined orbital
      l=0, rc=2.8281 Bohr: 3s-dz split-valence wave
      l=1, rc=3.5156 Bohr: 3p-dz split-valence wave
      l=2, rc=6.2656 Bohr: d-type Gaussian polarization

Reference energy: -2606927.690960

Spin-paired calculation

Convergence criteria:
 Maximum [total energy] change in last 3 cyles: 0.0005 eV / electron
 Maximum integral of absolute [dens]ity change: 0.0001 electrons / valence electron
 Maximum integral of absolute [eigenst]ate change: 4e-08 eV^2 / valence electron
 Maximum number of scf [iter]ations: 333
 (Square brackets indicate name in SCF output, whereas a 'c' in
 the SCF output indicates the quantity has converged.)

Symmetries present (total): 1

  ( 1  0  0)
  ( 0  1  0)
  ( 0  0  1)

16 k-points: 4 x 4 x 1 Monkhorst-Pack grid
8 k-points in the irreducible part of the Brillouin zone
       k-points in crystal coordinates                weights
   0:     0.12500000   -0.37500000    0.00000000          2/16
   1:     0.12500000   -0.12500000    0.00000000          2/16
   2:     0.12500000    0.12500000    0.00000000          2/16
   3:     0.12500000    0.37500000    0.00000000          2/16
   4:     0.37500000   -0.37500000    0.00000000          2/16
   5:     0.37500000   -0.12500000    0.00000000          2/16
   6:     0.37500000    0.12500000    0.00000000          2/16
   7:     0.37500000    0.37500000    0.00000000          2/16

Wave functions: Plane wave expansion
  Cutoff energy: 600.000 eV
  Number of coefficients (min, max): 63070, 63184
  Pulay-stress correction: 0.000000 eV/Ang^3 (de/decut=0.000000)
  Using FFTW library
  ScaLapack parameters: grid=2x2, blocksize=64
  Wavefunction extrapolation:
    Improved wavefunction reuse through dual PAW basis

Occupation numbers: Fermi-Dirac: width=0.1000 eV

Eigensolver
   Davidson(niter=2)

Densities:
  Coarse grid: 45*48*175 grid
  Fine grid: 90*96*350 grid
  Total Charge: 0.000000

Density mixing:
  Method: separate
  Backend: pulay
  Linear mixing parameter: 0.05
  Mixing with 5 old densities
  Damping of long wave oscillations: 50

Hamiltonian:
  XC and Coulomb potentials evaluated on a 90*96*350 grid
  Using the BEEF-vdW Exchange-Correlation functional
  External potential:
    NoExternalPotential

XC parameters: BEEF-vdW with 2 nearest neighbor stencil

Total number of cores used: 32
Parallelization over k-points: 8
Domain decomposition: 1 x 1 x 4
                      2 x 2 x 8 (xc only)

Number of atoms: 68
Number of atomic orbitals: 992
Number of bands in calculation: 420
Number of valence electrons: 692
Bands to converge: occupied

... initialized

Initializing position-dependent things.

Density initialized from atomic densities
Creating initial wave functions:
  420 bands from LCAO basis set

            Cl          Cl

                Cl     Cl
        Cl Cu  ClCu  Cl Cu

         Cu    Cu    CCu    Cu
       Cu    Cu    Cu     Cu
              Cu    Cu
           Cu    CCu    Cu
         Cu    Cu    CCu    Cu

       Cu    CCu   CCu    Cu
           Cu    CCu   CCu

         Cu    Cu    CCu    Cu
             Cu     Cu    Cu
       Cu     Cu    Cu
           Cu Cl  CuCl  Cu Cl
            Cl
                   Cl
          Cl           Cl

Positions:
   0 Cu     1.851874    1.842086   10.044767    ( 0.0000,  0.0000,  0.0000)
   1 Cu     0.572048    0.518337   11.854739    ( 0.0000,  0.0000,  0.0000)
   2 Cu     3.208369    0.549454   11.826759    ( 0.0000,  0.0000,  0.0000)
   3 Cu     1.885044    1.836608   13.699605    ( 0.0000,  0.0000,  0.0000)
   4 Cu     0.579320    0.526826   15.560947    ( 0.0000,  0.0000,  0.0000)
   5 Cu     3.185437    0.522508   15.555968    ( 0.0000,  0.0000,  0.0000)
   6 Cu     1.901068    1.854575   17.424612    ( 0.0000,  0.0000,  0.0000)
   7 Cu     0.575906    0.561899   19.206760    ( 0.0000,  0.0000,  0.0000)
   8 Cu     3.188310    0.488633   19.210481    ( 0.0000,  0.0000,  0.0000)
   9 Cu     0.574574    3.144633   11.846476    ( 0.0000,  0.0000,  0.0000)
  10 Cu     0.575916    3.143785   15.552326    ( 0.0000,  0.0000,  0.0000)
  11 Cu     0.546349    3.145891   19.206137    ( 0.0000,  0.0000,  0.0000)
  12 Cu     7.147069    1.821677   10.043621    ( 0.0000,  0.0000,  0.0000)
  13 Cu     5.794000    0.540777   11.820405    ( 0.0000,  0.0000,  0.0000)
  14 Cu     7.114080    1.831917   13.694773    ( 0.0000,  0.0000,  0.0000)
  15 Cu     5.808982    0.523918   15.556714    ( 0.0000,  0.0000,  0.0000)
  16 Cu     7.113100    1.827061   17.396972    ( 0.0000,  0.0000,  0.0000)
  17 Cu     5.807880    0.526790   19.217827    ( 0.0000,  0.0000,  0.0000)
  18 Cu     4.494064    1.763231    9.932089    ( 0.0000,  0.0000,  0.0000)
  19 Cu     4.496146    4.525263    9.931071    ( 0.0000,  0.0000,  0.0000)
  20 Cu     3.207669    3.147945   11.830838    ( 0.0000,  0.0000,  0.0000)
  21 Cu     5.791432    3.139321   11.831411    ( 0.0000,  0.0000,  0.0000)
  22 Cu     4.501104    1.833097   13.705422    ( 0.0000,  0.0000,  0.0000)
  23 Cu     4.500286    4.451342   13.700374    ( 0.0000,  0.0000,  0.0000)
  24 Cu     3.191019    3.143173   15.550169    ( 0.0000,  0.0000,  0.0000)
  25 Cu     5.806714    3.142761   15.552225    ( 0.0000,  0.0000,  0.0000)
  26 Cu     4.483820    1.848780   17.430757    ( 0.0000,  0.0000,  0.0000)
  27 Cu     4.483576    4.446716   17.420218    ( 0.0000,  0.0000,  0.0000)
  28 Cu     3.195113    3.070202   19.320757    ( 0.0000,  0.0000,  0.0000)
  29 Cu     5.840799    3.127025   19.209886    ( 0.0000,  0.0000,  0.0000)
  30 Cu     1.850636    4.467419   10.041562    ( 0.0000,  0.0000,  0.0000)
  31 Cu     1.883456    7.067453   10.032493    ( 0.0000,  0.0000,  0.0000)
  32 Cu     0.578168    5.767618   11.853682    ( 0.0000,  0.0000,  0.0000)
  33 Cu     3.207330    5.746015   11.820678    ( 0.0000,  0.0000,  0.0000)
  34 Cu     1.884398    4.451712   13.698510    ( 0.0000,  0.0000,  0.0000)
  35 Cu     1.882140    7.070634   13.694193    ( 0.0000,  0.0000,  0.0000)
  36 Cu     0.577138    5.762455   15.555937    ( 0.0000,  0.0000,  0.0000)
  37 Cu     3.190200    5.761333   15.545038    ( 0.0000,  0.0000,  0.0000)
  38 Cu     1.899950    4.455283   17.419419    ( 0.0000,  0.0000,  0.0000)
  39 Cu     1.897387    7.053708   17.430112    ( 0.0000,  0.0000,  0.0000)
  40 Cu     0.544416    5.772752   19.207193    ( 0.0000,  0.0000,  0.0000)
  41 Cu     3.197353    5.832220   19.317966    ( 0.0000,  0.0000,  0.0000)
  42 Cu     7.144990    4.448863   10.045121    ( 0.0000,  0.0000,  0.0000)
  43 Cu     7.115261    7.033008   10.044024    ( 0.0000,  0.0000,  0.0000)
  44 Cu     5.790284    5.740371   11.826573    ( 0.0000,  0.0000,  0.0000)
  45 Cu     7.115409    4.450638   13.698320    ( 0.0000,  0.0000,  0.0000)
  46 Cu     7.111993    7.067752   13.689826    ( 0.0000,  0.0000,  0.0000)
  47 Cu     5.806194    5.757852   15.551058    ( 0.0000,  0.0000,  0.0000)
  48 Cu     7.116689    4.449777   17.404260    ( 0.0000,  0.0000,  0.0000)
  49 Cu     7.119110    7.076103   17.395949    ( 0.0000,  0.0000,  0.0000)
  50 Cu     5.839650    5.752596   19.206190    ( 0.0000,  0.0000,  0.0000)
  51 Cu     4.502840    7.106124   10.040718    ( 0.0000,  0.0000,  0.0000)
  52 Cu     4.505854    7.072213   13.694900    ( 0.0000,  0.0000,  0.0000)
  53 Cu     4.482985    7.045347   17.423899    ( 0.0000,  0.0000,  0.0000)
  54 Cl     3.111134    4.453599   21.202893    ( 0.0000,  0.0000,  0.0000)
  55 Cl     4.580310    3.143724    8.048163    ( 0.0000,  0.0000,  0.0000)
  56 Cl     1.867046    5.767436    8.237027    ( 0.0000,  0.0000,  0.0000)
  57 Cl     0.561128    1.853895   21.006449    ( 0.0000,  0.0000,  0.0000)
  58 Cl     5.840224    7.039810   21.008038    ( 0.0000,  0.0000,  0.0000)
  59 Cl     7.093286    0.367959    8.057112    ( 0.0000,  0.0000,  0.0000)
  60 Cl     7.130126    5.740935    8.244573    ( 0.0000,  0.0000,  0.0000)
  61 Cl     5.824339    1.826908   21.013856    ( 0.0000,  0.0000,  0.0000)
  62 Cl     0.561128    7.353895   21.006449    ( 0.0000,  0.0000,  0.0000)
  63 Cl     1.699919    0.405738    8.070012    ( 0.0000,  0.0000,  0.0000)
  64 Cl     4.498586    5.754186    8.240800    ( 0.0000,  0.0000,  0.0000)
  65 Cl     3.192734    1.840401   21.010153    ( 0.0000,  0.0000,  0.0000)
  66 Cl     5.832282    4.433359   21.010947    ( 0.0000,  0.0000,  0.0000)
  67 Cl     1.783482    3.086587    8.153520    ( 0.0000,  0.0000,  0.0000)

Unit cell:
           periodic     x           y           z      points  spacing
  1. axis:    yes    7.851007    0.000000    0.000000    45     0.1655
[...]
          Cu   CCu     Cu   Cu
        Cu    CCu   CCu   Cu
                        Cl
             Cu    Cu    Cu
         Cl      Cl

[...]

        Cu    Cu    CCu    Cu
           CCu    CCu   CCu
                      Cu
          Cu   CCu     Cu   Cu
        Cu    CCu   CCu   Cu
                        Cl
            Cu     Cu    Cu
         Cl      Cl

[...]

                Cl
              Cl     Cl  Cl
                  Cl
                          Cl
          Clu     Cu    Cu
               Cu     Cu    Cu
          Cu    Cu    Cu
        Cu    CCu   CCu    Cu
           Cu     Cu    Cu
            Cu     Cu    Cu
          Cu   CCu    CCu   Cu

[...]

                Cl
              Cl     Cl  Cl
                  Cl
                          Cl
          Clu     Cu    Cu
               Cu     Cu    Cu
          Cu    Cu    Cu
        Cu    CCu   CCu    Cu
           Cu
            Cu    CCu   CCu
          Cu   CCu    CCu   Cu

[...]

          Cu   CCu    CCu   Cu
        Cu    Cu    CCu   Cu
                        Cl
            Cu     Cu    Cu
         Cl      Cl

[...]

                Cl       Cl
               Cl    Cl
                  Cl
                          Cl
          Clu     Cu    Cu
               Cu     Cu    Cu
          Cu    Cu    Cu
        Cu    CCu   CCu    Cu

           CCu    CCu   CCu
          Cu   CCu    CCu   Cu

        Cu    Cu    CCu    Cu
           CCu   CuCu   CCu

          Cu   CCu    CCu   Cu
        Cu   CCu    CCu   Cu
                        Cl
            Cu     Cu    Cu
         Cl      Cl

[...]

          Cu   CCu   CuCu   Cu
        Cu   CCu    CCu   Cu
                        Cl
            Cu     Cu    Cu
         Cl      Cl

[...]

                Cl        Cl
              Cl     Cl
                  Cl
                          Cl
          Clu     Cu    Cu
               Cu     Cu    Cu
          Cu    Cu    Cu
        Cu    CCu   CCu    Cu

           CCu    CCu   CCu
          Cu   CCu    CCu   Cu

        Cu    Cu    CCu    Cu
           CCu   CuCu   CCu

[...]

                Cl        Cl
               Cl    Cl

                  Cl      Cl
          Clu    Cu     Cu
               Cu     Cu    Cu
         Cu     Cu    Cu
        Cu   CCu    CCu    Cu

           CCu    Cu    CCu
         Cu    CCu    CCu   Cu

[...]

          Cu   CCu   CuCu   Cu
        Cu   CCu    CCu   Cu
                        Cl
            Cu     Cu    Cu
         Cl      Cl

[...]

                 Cl
               Cl    Cl   Cl

                  Cl      Cl
           Cl     Cu    Cu
               Cu     Cu    Cu
         Cu     Cu    Cu
        Cu   CCu    CCu    Cu

[...]

                  Cl      Cl
           Cl     Cu    Cu
               Cu     Cu    Cu
          Cu    Cu    Cu
        Cu    Cu    CCu    Cu

[...]

                 Cl
               Cl    Cl    Cl
                  Cl
                          Cl
           Cl     Cu    Cu
               Cu     Cu    Cu
          Cu    Cu    Cu
        Cu    Cu    CCu    Cu

           CCu    Cu    CCu
         Cu    CCu    CCu   Cu

        Cu    Cu    CCu    Cu
           CCu   CCu    CCu

          Cu   CCu    CCu   Cu
        Cu   CCu    CCu   Cu
                        Cl
            Cu     Cu    Cu
          Cl     Cl

[...]

                 Cl
               Cl    Cl   Cl
                  Cl
                          Cl
           Cl     Cu    Cu
               Cu     Cu    Cu
         Cu     Cu    Cu
        Cu    Cu    CCu    Cu
           Cu
            Cu    Cu    CCu
         Cu    CCu    CCu   Cu

        Cu    Cu    CCu    Cu
           CCu    Cu    CCu
                      Cu
         Cu    CCu     Cu   Cu
        Cu   CCu    CCu   Cu
                        Cl
            Cu     Cu    Cu
          Cl     Cl

[...]

                 Cl
               Cl    Cl    Cl
                  Cl
                          Cl
           Cl     Cu    Cu
               Cu     Cu    Cu
         Cu     Cu    Cu
        Cu   CCu    CCu    Cu
           Cu
            Cu    Cu    CCu
         Cu    CCu    CCu   Cu

        Cu    Cu    CCu    Cu
           CCu    Cu    CCu
                      Cu
         Cu    CCu     Cu   Cu
        Cu   CCu    CCu   Cu
                        Cl
            Cu     Cu    Cu
          Cl     Cl

[...]

                 Cl
               Cl    Cl    Cl
                  Cl
                           Cl
           Cl     Cu    Cu
               Cu     Cu    Cu
         Cu     Cu    Cu
        Cu   CCu    CCu    Cu
           Cu
            Cu    Cu    CCu
         Cu    CCu    Cu    Cu

        Cu   CCu    CCu    Cu
           CCu   CCu    CCu
                      Cu
         Cu    CCu     Cu   Cu
        Cu   CCu    CCu   Cu
                        Cl
            Cu     Cu    Cu
          Cl     Cl

[...]

                   Cl      Cl
           Cl     Cu    Cu
               Cu     Cu    Cu
         Cu     Cu    Cu
        Cu   CCu    CCu    Cu
           Cu
            Cu    Cu    CCu
         Cu    CCu    Cu    Cu

        Cu   CCu    CCu    Cu
           CCu   CCu    CCu
                      Cu    Cu
         Cu    CCu     Cu
        Cu   CCu    CCu   Cu
                        Cl
            Cu     Cu    Cu
          Cl     Cl

[...]

                  Cl      Cl
           Cl    Cu    Cu
               Cu    Cu    Cu
         Cu    Cu     Cu
       Cu    CCu   CCu    Cu
           Cu
           Cu    CCu   CCu
         Cu    CCu   CCu   Cu

[...]

                  Cl      Cl
           Cl    Cu    Cu
               Cu    Cu    Cu
         Cu    Cu     Cu
       Cu    CCu   CCu    Cu
           Cu
           Cu    CCu   CCu
         Cu    Cu    CCu   Cu

[...]

                  Cl      Cl
           Cl    Cu    Cu
               Cu    Cu    Cu
         Cu    Cu     Cu
       Cu    CCu   CCu    Cu
           Cu
           Cu    CCu   CCu
         Cu    CCu   CCu   Cu

[...]

                  Cl      Cl
           Cl    Cu    Cu
               Cu    Cu    Cu
         Cu    Cu     Cu
       Cu    CCu   CCu    Cu
           Cu
           Cu    CCu   CCu
         Cu    Cu    CCu   Cu

[...]

                  Cl      Cl
           Cl    Cu    Cu
               Cu    Cu    Cu
         Cu     Cu    Cu
       Cu    CCu   CCu    Cu
           Cu          Cu
           Cu    CCu    Cu
         Cu    CCu   CCu   Cu

[...]

System changes: positions

Initializing position-dependent things.

Density initialized from wave functions

                Cl
               Cl    Cl   Cl

                  Cl      Cl
           Cl    Cu    Cu
               Cu    Cu    Cu
         Cu     Cu    Cu
       Cu    CCu    Cu    Cu
           Cu    Cu    Cu
            Cu    Cu    Cu
         Cu    CCu   CCu   Cu

        Cu   CCu   CCu    Cu
           CCu   CCu   CCu
                     Cu    Cu
         Cu    CCu    Cu
        Cu   CCu   CCu    Cu
                       Cl
            Cu    Cu    Cu
         Cl      Cl

         Cl    Cl   Cl
                   Cl

Positions:
   0 Cu     2.062628    1.851429    9.940559    ( 0.0000,  0.0000,  0.0000)
   1 Cu     0.606981    0.524017   11.832953    ( 0.0000,  0.0000,  0.0000)
   2 Cu     3.213821    0.528347   11.849562    ( 0.0000,  0.0000,  0.0000)
   3 Cu     1.897990    1.832277   13.692301    ( 0.0000,  0.0000,  0.0000)
   4 Cu     0.580895    0.509933   15.543389    ( 0.0000,  0.0000,  0.0000)
   5 Cu     3.199579    0.521163   15.527383    ( 0.0000,  0.0000,  0.0000)
   6 Cu     1.893218    1.822266   17.371447    ( 0.0000,  0.0000,  0.0000)
   7 Cu     0.555311    0.507230   19.205641    ( 0.0000,  0.0000,  0.0000)
   8 Cu     3.193321    0.547676   19.212196    ( 0.0000,  0.0000,  0.0000)
   9 Cu     0.605766    3.114939   11.812947    ( 0.0000,  0.0000,  0.0000)
  10 Cu     0.567634    3.129479   15.544946    ( 0.0000,  0.0000,  0.0000)
  11 Cu     0.594336    3.128044   19.165380    ( 0.0000,  0.0000,  0.0000)
  12 Cu     7.271344    1.841420    9.889075    ( 0.0000,  0.0000,  0.0000)
  13 Cu     5.837444    0.522112   11.837767    ( 0.0000,  0.0000,  0.0000)
  14 Cu     7.137850    1.816017   13.695336    ( 0.0000,  0.0000,  0.0000)
  15 Cu     5.805119    0.510746   15.526972    ( 0.0000,  0.0000,  0.0000)
  16 Cu     7.090398    1.816387   17.385406    ( 0.0000,  0.0000,  0.0000)
  17 Cu     5.762404    0.538575   19.277371    ( 0.0000,  0.0000,  0.0000)
  18 Cu     4.677322    1.802267    9.979215    ( 0.0000,  0.0000,  0.0000)
  19 Cu     4.447593    4.432578    9.976831    ( 0.0000,  0.0000,  0.0000)
  20 Cu     3.217839    3.133105   11.825621    ( 0.0000,  0.0000,  0.0000)
  21 Cu     5.859495    3.117438   11.832823    ( 0.0000,  0.0000,  0.0000)
  22 Cu     4.519031    1.831953   13.695225    ( 0.0000,  0.0000,  0.0000)
  23 Cu     4.493484    4.443014   13.671333    ( 0.0000,  0.0000,  0.0000)
  24 Cu     3.206458    3.135510   15.544477    ( 0.0000,  0.0000,  0.0000)
  25 Cu     5.812106    3.142557   15.522463    ( 0.0000,  0.0000,  0.0000)
  26 Cu     4.524871    1.830681   17.412932    ( 0.0000,  0.0000,  0.0000)
  27 Cu     4.513278    4.456219   17.399329    ( 0.0000,  0.0000,  0.0000)
  28 Cu     3.215054    3.124794   19.240456    ( 0.0000,  0.0000,  0.0000)
  29 Cu     5.805471    3.114193   19.270401    ( 0.0000,  0.0000,  0.0000)
  30 Cu     1.866818    4.485537    9.942718    ( 0.0000,  0.0000,  0.0000)
  31 Cu     1.846916    7.051827    9.950940    ( 0.0000,  0.0000,  0.0000)
  32 Cu     0.567039    5.749061   11.825885    ( 0.0000,  0.0000,  0.0000)
  33 Cu     3.142113    5.748939   11.808469    ( 0.0000,  0.0000,  0.0000)
  34 Cu     1.879437    4.430040   13.696589    ( 0.0000,  0.0000,  0.0000)
  35 Cu     1.889183    7.058805   13.686337    ( 0.0000,  0.0000,  0.0000)
  36 Cu     0.571627    5.759380   15.526942    ( 0.0000,  0.0000,  0.0000)
  37 Cu     3.191116    5.743516   15.519455    ( 0.0000,  0.0000,  0.0000)
  38 Cu     1.873771    4.452222   17.374767    ( 0.0000,  0.0000,  0.0000)
  39 Cu     1.871123    7.048095   17.383825    ( 0.0000,  0.0000,  0.0000)
  40 Cu     0.541331    5.721992   19.305088    ( 0.0000,  0.0000,  0.0000)
  41 Cu     3.161288    5.757706   19.224743    ( 0.0000,  0.0000,  0.0000)
  42 Cu     7.064807    4.405749    9.997390    ( 0.0000,  0.0000,  0.0000)
  43 Cu     7.056124    7.047731   10.014681    ( 0.0000,  0.0000,  0.0000)
  44 Cu     5.780201    5.739496   11.838528    ( 0.0000,  0.0000,  0.0000)
  45 Cu     7.129439    4.440411   13.679943    ( 0.0000,  0.0000,  0.0000)
  46 Cu     7.116800    7.056268   13.673660    ( 0.0000,  0.0000,  0.0000)
  47 Cu     5.809831    5.745216   15.523118    ( 0.0000,  0.0000,  0.0000)
  48 Cu     7.116052    4.467301   17.396823    ( 0.0000,  0.0000,  0.0000)
  49 Cu     7.103091    7.050968   17.396165    ( 0.0000,  0.0000,  0.0000)
  50 Cu     5.760289    5.773688   19.322730    ( 0.0000,  0.0000,  0.0000)
  51 Cu     4.429840    7.054189   10.006385    ( 0.0000,  0.0000,  0.0000)
  52 Cu     4.497420    7.054202   13.688867    ( 0.0000,  0.0000,  0.0000)
  53 Cu     4.498408    7.043122   17.379922    ( 0.0000,  0.0000,  0.0000)
  54 Cl     3.968747    4.468053   21.018633    ( 0.0000,  0.0000,  0.0000)
  55 Cl     3.673020    2.988598    8.226060    ( 0.0000,  0.0000,  0.0000)
  56 Cl     2.133968    5.877165    5.627412    ( 0.0000,  0.0000,  0.0000)
  57 Cl     1.764453    1.815121   20.857865    ( 0.0000,  0.0000,  0.0000)
  58 Cl     6.472662    7.201830   21.077780    ( 0.0000,  0.0000,  0.0000)
  59 Cl     5.641184    0.205059    8.257058    ( 0.0000,  0.0000,  0.0000)
  60 Cl     5.639794    5.803187    8.350138    ( 0.0000,  0.0000,  0.0000)
  61 Cl     5.673781    1.962932   23.465805    ( 0.0000,  0.0000,  0.0000)
  62 Cl     1.881308    7.186986   20.898304    ( 0.0000,  0.0000,  0.0000)
  63 Cl     0.984761    0.609996    8.260786    ( 0.0000,  0.0000,  0.0000)
  64 Cl     3.953935    5.694869    4.785378    ( 0.0000,  0.0000,  0.0000)
  65 Cl     3.850179    1.774482   24.299608    ( 0.0000,  0.0000,  0.0000)
  66 Cl     7.249189    4.049223   20.956351    ( 0.0000,  0.0000,  0.0000)
  67 Cl     0.488717    3.947367    8.132395    ( 0.0000,  0.0000,  0.0000)

Unit cell:
           periodic     x           y           z      points  spacing
  1. axis:    yes    7.851007    0.000000    0.000000    45     0.1655
  2. axis:    yes    2.617002    7.851007    0.000000    48     0.1636
  3. axis:    yes    0.000000    0.000000   30.683867   175     0.1753

  Lengths:   7.851007   8.275688  30.683867
  Angles:   90.000000  90.000000  71.565053

Effective grid spacing dv^(1/3) = 0.1710

     iter     time        total  log10-change:
                         energy  eigst   dens
iter:   1 14:45:55 -4598.878880  -3.24
iter:   2 14:46:50 -4598.876228  -4.52  -3.32
iter:   3 14:47:47 -4598.876226c -5.01  -3.38
iter:   4 14:48:43 -4598.874867c -4.95  -3.41
iter:   5 14:49:39 -4598.873369c -5.73  -3.54
iter:   6 14:50:34 -4598.873264c -5.32  -3.77
iter:   7 14:51:30 -4598.873340c -6.24  -3.94
iter:   8 14:52:25 -4598.873030c -5.85  -4.05c
iter:   9 14:53:36 -4598.872995c -6.62  -4.35c
iter:  10 14:54:31 -4598.873012c -6.53  -4.43c
iter:  11 14:55:25 -4598.873002c -7.35  -4.58c
iter:  12 14:56:19 -4598.873002c -7.79c -4.71c

Converged after 12 iterations.

Dipole moment: (-18.451632, -37.590581, 0.036455) |e|*Ang

Energy contributions relative to reference atoms: (reference = -2606927.690960)

Kinetic:       +528.418533
Potential:     -554.383813
External:        +0.000000
XC:            -4571.857548
Entropy (-ST):   -0.545163
Local:           -0.777591
Free energy:   -4599.145583
Extrapolated:  -4598.873002

Showing only first 2 kpts
 Kpt  Band  Eigenvalues  Occupancy
  0   344     -0.20288    1.91901
  0   345     -0.11009    1.80709
  0   346     -0.06117    1.70342
  0   347      0.15096    0.81549

  1   344     -0.08282    1.75404
  1   345      0.00833    1.48272
  1   346      0.09267    1.10443
  1   347      0.23668    0.45219

Fermi level: 0.11363

No gap

Forces in eV/Ang:
  0 Cu   -0.00226   -0.01682   -0.00511
  1 Cu   -0.00695    0.00543    0.00126
  2 Cu   -0.00039   -0.00382   -0.00323
  3 Cu   -0.00067    0.00754    0.00716
  4 Cu   -0.00675    0.00759    0.00139
  5 Cu    0.00442   -0.01331    0.00644
  6 Cu    0.00553    0.00642   -0.00360
  7 Cu    0.01856    0.00412   -0.00015
  8 Cu    0.00512   -0.00990    0.00118
  9 Cu   -0.00320    0.01293    0.00097
 10 Cu    0.00169    0.00425   -0.00265
 11 Cu    0.01526   -0.00625   -0.00471
 12 Cu   -0.00208    0.00457    0.00678
 13 Cu    0.00318   -0.00700    0.00064
 14 Cu    0.00391   -0.00025   -0.00425
 15 Cu   -0.00505   -0.00113    0.00041
 16 Cu   -0.00360    0.00219   -0.00089
 17 Cu    0.01031    0.00527   -0.00899
 18 Cu   -0.00804   -0.00416   -0.00007
 19 Cu    0.00174   -0.00614    0.00330
 20 Cu   -0.00568   -0.00073    0.00852
 21 Cu   -0.00205   -0.00112   -0.00215
 22 Cu    0.00479   -0.00541   -0.00005
 23 Cu    0.00320   -0.00531   -0.00656
 24 Cu    0.00907   -0.01049   -0.00080
 25 Cu    0.00578    0.00739   -0.00122
 26 Cu    0.00021    0.00405   -0.00240
 27 Cu   -0.00033    0.00301   -0.00488
 28 Cu    0.01941    0.00632   -0.00168
 29 Cu    0.01030    0.00303    0.00880
 30 Cu   -0.01245    0.00236   -0.00090
 31 Cu   -0.00492   -0.00636    0.00077
 32 Cu   -0.00694    0.00371   -0.00482
 33 Cu   -0.00271   -0.00236   -0.00448
 34 Cu    0.00736    0.00543    0.00222
 35 Cu   -0.00122    0.00545    0.00543
 36 Cu   -0.00388    0.00074   -0.00036
 37 Cu   -0.00472    0.00387   -0.00245
 38 Cu    0.00321   -0.00479   -0.00911
 39 Cu   -0.00550   -0.00885    0.00584
 40 Cu   -0.01706   -0.00755    0.00376
 41 Cu    0.00225   -0.00698    0.00806
 42 Cu   -0.02079    0.00498    0.00271
 43 Cu   -0.00585   -0.01491   -0.00668
 44 Cu    0.00066    0.00069   -0.01714
 45 Cu   -0.00279   -0.00142   -0.00121
 46 Cu   -0.00462   -0.00049   -0.00106
 47 Cu   -0.00242    0.00139   -0.00027
 48 Cu   -0.00402   -0.00208   -0.00137
 49 Cu   -0.00389    0.00034    0.00380
 50 Cu   -0.01297    0.01140    0.01371
 51 Cu   -0.00849   -0.00344    0.00806
 52 Cu   -0.00091    0.00581   -0.00096
 53 Cu   -0.00497    0.00666    0.00115
 54 Cl    0.00138    0.00038   -0.00193
 55 Cl   -0.00921    0.01249   -0.01150
 56 Cl    0.01199    0.00479    0.00421
 57 Cl   -0.00856   -0.01102    0.00405
 58 Cl    0.00684    0.01254   -0.01539
 59 Cl    0.01463   -0.01383   -0.01078
 60 Cl    0.00053    0.01181   -0.00422
 61 Cl   -0.00685   -0.00232    0.01748
 62 Cl    0.00136   -0.00581    0.01321
 63 Cl   -0.01202    0.01454   -0.00511
 64 Cl    0.01694    0.00791   -0.00688
 65 Cl   -0.00815   -0.00765   -0.00642
 66 Cl   -0.00523   -0.01681    0.00143
 67 Cl    0.01002    0.01931    0.00192