User:   thorkong@node024.cluster
Date:   Mon Oct 17 12:14:51 2022
Arch:   x86_64
Pid:    13412
Python: 3.10.5
gpaw:   /groups/kemi/thorkong/miniconda3/envs/gpaw22/lib/python3.10/site-packages/gpaw
_gpaw:  /groups/kemi/thorkong/miniconda3/envs/gpaw22/lib/python3.10/site-packages/
        _gpaw.cpython-310-x86_64-linux-gnu.so
ase:    /groups/kemi/thorkong/miniconda3/envs/gpaw22/lib/python3.10/site-packages/ase (version 3.22.1)
numpy:  /groups/kemi/thorkong/miniconda3/envs/gpaw22/lib/python3.10/site-packages/numpy (version 1.23.0)
scipy:  /groups/kemi/thorkong/miniconda3/envs/gpaw22/lib/python3.10/site-packages/scipy (version 1.8.1)
units:  Angstrom and eV
cores: 32
OpenMP: True
OMP_NUM_THREADS: 1

Input parameters:
  basis: dzp
  kpts: [4 4 1]
  mode: {ecut: 600.0,
         name: pw}
  xc: BEEF-vdW

System changes: positions, numbers, cell, pbc, initial_charges, initial_magmoms

Initialize ...

Cu-setup:
  name: Copper
  id: f1c4d45d90492f1bbfdcb091e8418fdf
  Z: 29.0
  valence: 11
  core: 18
  charge: 0.0
  file: /groups/kemi/thorkong/miniconda3/envs/gpaw22/share/gpaw/Cu.PBE.gz
  compensation charges: gauss, rc=0.33, lmax=2
  cutoffs: 2.06(filt), 2.43(core),
  valence states:
                energy  radius
    4s(1.00)    -4.609   1.164
    4p(0.00)    -0.698   1.164
    3d(10.00)    -5.039   1.058
    *s          22.603   1.164
    *p          26.513   1.164
    *d          22.172   1.058

  LCAO basis set for Cu:
    Name: dzp
    File: /groups/kemi/thorkong/miniconda3/envs/gpaw22/share/gpaw/Cu.dzp.basis.gz
    Number of radial functions: 5
    Number of spherical harmonics: 15
      l=0, rc=8.9688 Bohr: 4s-sz confined orbital
      l=2, rc=5.1719 Bohr: 3d-sz confined orbital
      l=0, rc=5.3281 Bohr: 4s-dz split-valence wave
      l=2, rc=3.1406 Bohr: 3d-dz split-valence wave
      l=1, rc=8.9688 Bohr: p-type Gaussian polarization

Cl-setup:
  name: Chlorine
  id: 726897f06f34e53cf8e33b5885a02604
  Z: 17.0
  valence: 7
  core: 10
  charge: 0.0
  file: /groups/kemi/thorkong/miniconda3/envs/gpaw22/share/gpaw/Cl.PBE.gz
  compensation charges: gauss, rc=0.25, lmax=2
  cutoffs: 1.40(filt), 1.49(core),
  valence states:
                energy  radius
    3s(2.00)   -20.689   0.794
    3p(5.00)    -8.594   0.794
    *s           6.523   0.794
    *p          18.617   0.794
    *d           0.000   0.794

  LCAO basis set for Cl:
    Name: dzp
    File: /groups/kemi/thorkong/miniconda3/envs/gpaw22/share/gpaw/Cl.dzp.basis.gz
    Number of radial functions: 5
    Number of spherical harmonics: 13
      l=0, rc=5.1719 Bohr: 3s-sz confined orbital
      l=1, rc=6.2656 Bohr: 3p-sz confined orbital
      l=0, rc=2.8281 Bohr: 3s-dz split-valence wave
      l=1, rc=3.5156 Bohr: 3p-dz split-valence wave
      l=2, rc=6.2656 Bohr: d-type Gaussian polarization

Reference energy: -2556707.893378

Spin-paired calculation

Convergence criteria:
 Maximum [total energy] change in last 3 cyles: 0.0005 eV / electron
 Maximum integral of absolute [dens]ity change: 0.0001 electrons / valence electron
 Maximum integral of absolute [eigenst]ate change: 4e-08 eV^2 / valence electron
 Maximum number of scf [iter]ations: 333
 (Square brackets indicate name in SCF output, whereas a 'c' in
 the SCF output indicates the quantity has converged.)

Symmetries present (total): 1

  ( 1  0  0)
  ( 0  1  0)
  ( 0  0  1)

16 k-points: 4 x 4 x 1 Monkhorst-Pack grid
8 k-points in the irreducible part of the Brillouin zone
       k-points in crystal coordinates                weights
   0:     0.12500000   -0.37500000    0.00000000          2/16
   1:     0.12500000   -0.12500000    0.00000000          2/16
   2:     0.12500000    0.12500000    0.00000000          2/16
   3:     0.12500000    0.37500000    0.00000000          2/16
   4:     0.37500000   -0.37500000    0.00000000          2/16
   5:     0.37500000   -0.12500000    0.00000000          2/16
   6:     0.37500000    0.12500000    0.00000000          2/16
   7:     0.37500000    0.37500000    0.00000000          2/16

Wave functions: Plane wave expansion
  Cutoff energy: 600.000 eV
  Number of coefficients (min, max): 54614, 54705
  Pulay-stress correction: 0.000000 eV/Ang^3 (de/decut=0.000000)
  Using FFTW library
  ScaLapack parameters: grid=2x2, blocksize=64
  Wavefunction extrapolation:
    Improved wavefunction reuse through dual PAW basis

Occupation numbers: Fermi-Dirac: width=0.1000 eV

Eigensolver
   Davidson(niter=2)

Densities:
  Coarse grid: 45*45*175 grid
  Fine grid: 90*90*350 grid
  Total Charge: 0.000000

Density mixing:
  Method: separate
  Backend: pulay
  Linear mixing parameter: 0.05
  Mixing with 5 old densities
  Damping of long wave oscillations: 50

Hamiltonian:
  XC and Coulomb potentials evaluated on a 90*90*350 grid
  Using the BEEF-vdW Exchange-Correlation functional
  External potential:
    NoExternalPotential

XC parameters: BEEF-vdW with 2 nearest neighbor stencil

Total number of cores used: 32
Parallelization over k-points: 8
Domain decomposition: 1 x 1 x 4
                      2 x 2 x 8 (xc only)

Number of atoms: 64
Number of atomic orbitals: 940
Number of bands in calculation: 403
Number of valence electrons: 664
Bands to converge: occupied

... initialized

Initializing position-dependent things.

Density initialized from atomic densities
Creating initial wave functions:
  403 bands from LCAO basis set

                     Cl            Cl

                       Cl
            Cl          CCl   Cu     Cu
                   Cu     Cu    Cu
               Cu    Cu     Cu
                    Cu     Cu    Cu
                Cu    Cu    Cu
           Cu    Cu     Cu
                Cu     Cu    Cu
            Cu    Cu     Cu
       Cu     Cu        Cu    Cu     Cu
                   CCu    Cu    Cu
               Cu    Cu     Cu
                    Cu     Cu    Cu
                Cu    Cu    Cu
           Cu    Cu     Cu
                Cu     Cu    Cu
            Cu    Cu     Cu
       Cu     Cu   CCu          Cl
                     Cl

[...]

Positions:
   0 Cu     2.884162   -0.011729   10.033678    ( 0.0000,  0.0000,  0.0000)
   1 Cu     4.175487    2.207390    9.968025    ( 0.0000,  0.0000,  0.0000)
   2 Cu     0.268779    0.005327   10.035957    ( 0.0000,  0.0000,  0.0000)
   3 Cu     1.563079    2.250160   10.040939    ( 0.0000,  0.0000,  0.0000)
   4 Cu     2.905835    3.013667   12.132731    ( 0.0000,  0.0000,  0.0000)
   5 Cu     1.587256    0.751197   12.155983    ( 0.0000,  0.0000,  0.0000)
   6 Cu     5.501600    3.021336   12.124235    ( 0.0000,  0.0000,  0.0000)
   7 Cu     4.203724    0.772150   12.120007    ( 0.0000,  0.0000,  0.0000)
   8 Cu     5.509809    1.511263   14.273560    ( 0.0000,  0.0000,  0.0000)
   9 Cu     6.817749    3.779201   14.272965    ( 0.0000,  0.0000,  0.0000)
  10 Cu     2.895657    1.507106   14.282845    ( 0.0000,  0.0000,  0.0000)
  11 Cu     4.204745    3.779097   14.275593    ( 0.0000,  0.0000,  0.0000)
  12 Cu     2.898323   -0.006205   16.439255    ( 0.0000,  0.0000,  0.0000)
  13 Cu     4.202828    2.263486   16.411249    ( 0.0000,  0.0000,  0.0000)
  14 Cu     0.271173   -0.001683   16.415015    ( 0.0000,  0.0000,  0.0000)
  15 Cu     1.580207    2.267720   16.418056    ( 0.0000,  0.0000,  0.0000)
  16 Cu     2.898773    3.019517   18.534881    ( 0.0000,  0.0000,  0.0000)
  17 Cu     1.574509    0.759578   18.535562    ( 0.0000,  0.0000,  0.0000)
  18 Cu     5.517461    3.017381   18.557838    ( 0.0000,  0.0000,  0.0000)
  19 Cu     4.218777    0.769327   18.565915    ( 0.0000,  0.0000,  0.0000)
  20 Cu     5.482458    1.472743   20.721328    ( 0.0000,  0.0000,  0.0000)
  21 Cu     6.840691    3.826186   20.718062    ( 0.0000,  0.0000,  0.0000)
  22 Cu     2.872766    1.512688   20.651496    ( 0.0000,  0.0000,  0.0000)
  23 Cu     4.179191    3.794081   20.647081    ( 0.0000,  0.0000,  0.0000)
  24 Cu     5.533098    4.559222    9.954112    ( 0.0000,  0.0000,  0.0000)
  25 Cu     2.867968    4.534051   10.029210    ( 0.0000,  0.0000,  0.0000)
  26 Cu     4.213127    5.276205   12.126541    ( 0.0000,  0.0000,  0.0000)
  27 Cu     6.799507    5.268601   12.115394    ( 0.0000,  0.0000,  0.0000)
  28 Cu     8.121886    6.047639   14.244202    ( 0.0000,  0.0000,  0.0000)
  29 Cu     5.516666    6.046671   14.278211    ( 0.0000,  0.0000,  0.0000)
  30 Cu     5.511110    4.531825   16.410270    ( 0.0000,  0.0000,  0.0000)
  31 Cu     2.888634    4.532926   16.406558    ( 0.0000,  0.0000,  0.0000)
  32 Cu     4.204789    5.283723   18.534523    ( 0.0000,  0.0000,  0.0000)
  33 Cu     6.814487    5.265823   18.565627    ( 0.0000,  0.0000,  0.0000)
  34 Cu     8.131354    6.045561   20.650058    ( 0.0000,  0.0000,  0.0000)
  35 Cu     5.501317    6.065983   20.648502    ( 0.0000,  0.0000,  0.0000)
  36 Cu     5.515639   -0.030915   10.037620    ( 0.0000,  0.0000,  0.0000)
  37 Cu     6.838300    2.241957   10.038361    ( 0.0000,  0.0000,  0.0000)
  38 Cu     8.121401    3.021170   12.150082    ( 0.0000,  0.0000,  0.0000)
  39 Cu     6.815400    0.755845   12.149679    ( 0.0000,  0.0000,  0.0000)
  40 Cu     8.132578    1.510559   14.278234    ( 0.0000,  0.0000,  0.0000)
  41 Cu     9.440817    3.775125   14.268637    ( 0.0000,  0.0000,  0.0000)
  42 Cu     5.504098   -0.004613   16.403245    ( 0.0000,  0.0000,  0.0000)
  43 Cu     6.816730    2.264183   16.407976    ( 0.0000,  0.0000,  0.0000)
  44 Cu     8.113114    3.026556   18.553628    ( 0.0000,  0.0000,  0.0000)
  45 Cu     6.806143    0.763216   18.553497    ( 0.0000,  0.0000,  0.0000)
  46 Cu     8.148557    1.500971   20.654047    ( 0.0000,  0.0000,  0.0000)
  47 Cu     9.453486    3.785452   20.645604    ( 0.0000,  0.0000,  0.0000)
  48 Cu     8.143342    4.522704   10.030314    ( 0.0000,  0.0000,  0.0000)
  49 Cu     9.444142    5.279553   12.148158    ( 0.0000,  0.0000,  0.0000)
  50 Cu    10.750397    6.043904   14.266863    ( 0.0000,  0.0000,  0.0000)
  51 Cu     8.125450    4.536072   16.403731    ( 0.0000,  0.0000,  0.0000)
  52 Cu     9.432612    5.289470   18.528114    ( 0.0000,  0.0000,  0.0000)
  53 Cu    10.748665    6.030225   20.646267    ( 0.0000,  0.0000,  0.0000)
  54 Cl     6.147134    2.664301   22.667231    ( 0.0000,  0.0000,  0.0000)
  55 Cl     4.853098    3.366848    8.014863    ( 0.0000,  0.0000,  0.0000)
  56 Cl    10.101076    4.907838   23.055936    ( 0.0000,  0.0000,  0.0000)
  57 Cl     0.915929    1.127744    7.628448    ( 0.0000,  0.0000,  0.0000)
  58 Cl     8.857645    5.743262    7.623330    ( 0.0000,  0.0000,  0.0000)
  59 Cl     2.077612    0.292715   23.096412    ( 0.0000,  0.0000,  0.0000)
  60 Cl     4.840254    4.930032   23.057792    ( 0.0000,  0.0000,  0.0000)
  61 Cl     6.176970    1.105521    7.627990    ( 0.0000,  0.0000,  0.0000)
  62 Cl     3.525825    5.890548    7.624209    ( 0.0000,  0.0000,  0.0000)
  63 Cl     7.377612    0.192715   23.096412    ( 0.0000,  0.0000,  0.0000)

Unit cell:
           periodic     x           y           z      points  spacing
  1. axis:    yes    7.851007    0.000000    0.000000    45     0.1511
  2. axis:    yes    3.925503    6.799171    0.000000    45     0.1511
  3. axis:    yes    0.000000    0.000000   30.683867   175     0.1753

[...]
            Cu           Cu
                  Cu         Cl
       Cu     Cu    Cul
            Cl
                       Cl

[...]

                    Cl
                               Cl
                       Clu    Cu     Cu
               Cl         Cl
                   Cu           Cu
               Cu   CCu    CCu   Cu

[...]

           Cu   CCu    CCu   Cu
            Cu           Cu
                  Cu         Cl
       Cu     Cu    Cul
             Cl
                        Cl

[...]

                    Cl         Cl
                       Clu    Cu     Cu
               Cl         Cl
                   Cu           Cu
               Cu   CCu    CCu   Cu

[...]

           Cu   CCu    CCu   Cu
            Cu           Cu
                  Cu         Cl
       Cu     Cu    Cul
             Cl         Cl

[...]

                   Cl          Cl
                       Clu    Cu     Cu
               Cl         CCl
                   Cu           Cu
               Cu   CCu    CCu   Cu

[...]

           Cu   CCu    CCu   Cu
            Cu           Cu
                 CCu         Cl
       Cu     Cu    Cul
             Cl         Cl

[...]

                   Cl          Cl
                       Clu    Cu     Cu
               Cl         Cu
                   Cu      Cl   Cu
               Cu   CCu    CCu   Cu

[...]

           Cu   CCu    CCu   Cu
            Cu           Cu
                 CCu         Cl
       Cu     Cu    Cul
             Cl          Cl

[...]

                  Cl          Cl
                       Clu    Cu     Cu
               Cl         CCl
                   Cu           Cu
               Cu   CCu    CCu   Cu

[...]

           Cu   CuCu   CCu   Cu
            Cu           Cu
                 CCu         Cl
       Cu     Cu    Cul
             Cl          Cl

[...]

                  Cl          Cl
                       Clu    Cu     Cu
               Cl         CCl
                   Cu           Cu
               Cu   CCu   CuCu   Cu

[...]

               Cu   CCu   CuCu   Cu
                Cu    Cu    Cu

           Cu   CuCu   CCu   Cu
            Cu           Cu
                 CCu         Cl
       Cu     Cu    Cul
             Cl           Cl

[...]

     iter     time        total  log10-change:
                         energy  eigst   dens
iter:   1 20:58:51 -4454.393114  -1.85
iter:   2 20:59:39 -4454.480535  -2.72  -2.31
iter:   3 21:00:27 -4454.309254c -3.06  -2.38
iter:   4 21:01:16 -4453.971299  -3.55  -2.45
iter:   5 21:02:04 -4453.908530  -3.79  -2.68
iter:   6 21:02:51 -4453.903538c -3.86  -2.90
iter:   7 21:03:39 -4453.893499c -4.64  -3.07
iter:   8 21:04:28 -4453.893315c -4.66  -3.20
iter:   9 21:05:19 -4453.895276c -5.07  -3.33
iter:  10 21:06:13 -4453.892490c -4.79  -3.38
iter:  11 21:07:02 -4453.892357c -5.44  -3.59
iter:  12 21:07:50 -4453.891952c -6.37  -3.76
iter:  13 21:08:39 -4453.891673c -5.58  -3.83
iter:  14 21:09:27 -4453.891392c -6.25  -4.01c
iter:  15 21:10:16 -4453.891462c -6.45  -4.16c
iter:  16 21:11:04 -4453.891504c -6.51  -4.24c
iter:  17 21:11:52 -4453.891497c -7.28  -4.37c
iter:  18 21:12:41 -4453.891413c -7.16  -4.53c
iter:  19 21:13:39 -4453.891356c -7.29  -4.56c
iter:  20 21:14:40 -4453.891430c -7.71c -4.73c

[...]

                  Cl          Cl
                       Clu    Cu     Cu
               Cl         CCl
                   Cu           Cu
               Cu   CCu   CuCu   Cu
                      Cu
                Cu          Cu
           Cu   CCu    CCu   Cu

[...]

               Cu   CCu    CCu   Cu
               Cu           Cu
                      Cu
           Cu   CCu    CCu   Cu
            Cu           Cu
                 CCu         Cl
       Cu     Cu    Cul
              Cl         Cl

[...]

                  Cl          Cl
                       Clu    Cu     Cu
               Cl         CCl
                   Cu           Cu
               Cu   CCu   CuCu   Cu

                Cu    Cu    Cu
           Cu   CCu    CCu   Cu

[...]

               Cu   CCu    CCu   Cu
                Cu          Cu
                      Cu
           Cu   CuCu   CCu   Cu
            Cu           Cu
                 CCu         Cl
       Cu     Cu    Cul
              Cl          Cl

[...]

                  Cl          Cl
                      ClCu    Cu     Cu
               Cl         CCl
                   Cu           Cu
               Cu   CCu   CuCu   Cu
                      Cu
                Cu          Cu
           Cu   CCu    CCu   Cu

[...]

                  Cl          Cl
                      ClCu    Cu     Cu
               Cl        CuCl
                   Cu           Cu
               Cu   CCu   CuCu   Cu
                      Cu
                Cu          Cu
           Cu   CCu    CCu   Cu

[...]

                  Cl         Cl
                      ClCu    Cu     Cu
                Cl       CuCl   Cu
                   Cu
               Cu   CCu    CCu   Cu
                      Cu
                Cu           Cu
           Cu   CCu    CCu   Cu

[...]

               Cu   CCu    CCu   Cu
               Cu           Cu
                      Cu
           Cu   CCu    CCu   Cu
            Cu           Cu
                 CCu        Cl
       Cu     Cu    Cul
              Cl          Cl

[...]

                 Cl          Cl
                      ClCu    Cu     Cu
               Cl         CCl   Cu
                   Cu
               Cu   CCu    CCu   Cu
                      Cu     Cu
                Cu
           Cu   CCu    CCu   Cu

[...]

               Cu   CCu    CCu   Cu
               Cu           Cu
                      Cu
           Cu   CCu    CCu   Cu
                         Cu
            Cu   CCu        Cl
       Cu     Cu    Cul
              Cl          Cl

[...]

                 Cl          Cl
                      ClCu    Cu     Cu
               Cl  Cu     CCl   Cu

[...]

           Cu   CCu    CCu   Cu

[...]

               Cu   CCu    CCu   Cu
                Cu    Cu     Cu

           Cu   CCu    CCu   Cu

[...]

               Cu   CCu    CCu   Cu
                Cu           Cu
                      Cu
           Cu   CCu    CCu   Cu

[...]

               Cu   CCu   CuCu   Cu
                      Cu    Cu
               Cu
           Cu   CCu    CCu   Cu
                         Cu
            Cu   CCu        Cl
       Cu     Cu    Cul
               Cl          Cl

[...]

               Cu   CCu    CCu   Cu
                             Cu
                Cu    Cu
           Cu   CCu    CCu   Cu

[...]

               Cu   CCu    CCu   Cu
                             Cu
                Cu    Cu
           Cu   CCu    CCu   Cu

[...]

               Cu   CCu   CuCu   Cu
                      Cu    Cu
               Cu
           Cu   CCu    CCu   Cu
                         Cu
            Cu   CCu         Cl
       Cu     Cu    Cul
               Cl          Cl

[...]

System changes: positions

Initializing position-dependent things.

Density initialized from wave functions

                 Cl          Cl
                      ClCu    Cu     Cu
               Cl  Cu     CCl   Cu

               Cu   CCu    CCu   Cu
                Cu           Cu
                      Cu
           Cu   CCu    CCu   Cu

            Cu    Cu    CCu   Cu     Cu
       Cu     Cu   CCu    Cu    Cu

               Cu   CCu    CCu   Cu
                      Cu    Cu
               Cu
           Cu   CCu    CCu   Cu
                         Cu
            Cu   CCu         Cl
       Cu     Cu    Cul
               Cl          Cl

Positions:
   0 Cu     2.877915   -0.082491    9.917658    ( 0.0000,  0.0000,  0.0000)
   1 Cu     4.209309    2.242023    9.937251    ( 0.0000,  0.0000,  0.0000)
   2 Cu     0.267750    0.007166    9.935837    ( 0.0000,  0.0000,  0.0000)
   3 Cu     1.556573    2.267274    9.911287    ( 0.0000,  0.0000,  0.0000)
   4 Cu     2.864650    3.001957   12.084938    ( 0.0000,  0.0000,  0.0000)
   5 Cu     1.577222    0.721880   12.057086    ( 0.0000,  0.0000,  0.0000)
   6 Cu     5.478953    2.998595   12.153805    ( 0.0000,  0.0000,  0.0000)
   7 Cu     4.209092    0.733335   12.059641    ( 0.0000,  0.0000,  0.0000)
   8 Cu     5.504262    1.502633   14.274886    ( 0.0000,  0.0000,  0.0000)
   9 Cu     6.823445    3.769370   14.277542    ( 0.0000,  0.0000,  0.0000)
  10 Cu     2.896029    1.500490   14.217927    ( 0.0000,  0.0000,  0.0000)
  11 Cu     4.191344    3.774861   14.268141    ( 0.0000,  0.0000,  0.0000)
  12 Cu     2.907720   -0.003418   16.400669    ( 0.0000,  0.0000,  0.0000)
  13 Cu     4.203760    2.271323   16.402565    ( 0.0000,  0.0000,  0.0000)
  14 Cu     0.291787   -0.003970   16.402872    ( 0.0000,  0.0000,  0.0000)
  15 Cu     1.597307    2.273013   16.382996    ( 0.0000,  0.0000,  0.0000)
  16 Cu     2.907865    3.052163   18.544065    ( 0.0000,  0.0000,  0.0000)
  17 Cu     1.613415    0.761320   18.508850    ( 0.0000,  0.0000,  0.0000)
  18 Cu     5.546521    3.038918   18.526760    ( 0.0000,  0.0000,  0.0000)
  19 Cu     4.233085    0.741609   18.510148    ( 0.0000,  0.0000,  0.0000)
  20 Cu     5.547968    1.431370   20.545106    ( 0.0000,  0.0000,  0.0000)
  21 Cu     6.818674    3.768700   20.695372    ( 0.0000,  0.0000,  0.0000)
  22 Cu     2.918054    1.561581   20.543758    ( 0.0000,  0.0000,  0.0000)
  23 Cu     4.309358    3.761720   20.648520    ( 0.0000,  0.0000,  0.0000)
  24 Cu     5.507350    4.563905   10.093875    ( 0.0000,  0.0000,  0.0000)
  25 Cu     2.890416    4.477115   10.017521    ( 0.0000,  0.0000,  0.0000)
  26 Cu     4.192959    5.295737   12.141008    ( 0.0000,  0.0000,  0.0000)
  27 Cu     6.802742    5.283236   12.151538    ( 0.0000,  0.0000,  0.0000)
  28 Cu     8.126294    6.039901   14.262639    ( 0.0000,  0.0000,  0.0000)
  29 Cu     5.512277    6.039709   14.278119    ( 0.0000,  0.0000,  0.0000)
  30 Cu     5.521783    4.540086   16.412474    ( 0.0000,  0.0000,  0.0000)
  31 Cu     2.901463    4.548343   16.445346    ( 0.0000,  0.0000,  0.0000)
  32 Cu     4.254194    5.310890   18.602125    ( 0.0000,  0.0000,  0.0000)
  33 Cu     6.821280    5.310148   18.626550    ( 0.0000,  0.0000,  0.0000)
  34 Cu     8.156310    6.079931   20.782955    ( 0.0000,  0.0000,  0.0000)
  35 Cu     5.553695    6.083780   20.836871    ( 0.0000,  0.0000,  0.0000)
  36 Cu     5.471575   -0.038571    9.929976    ( 0.0000,  0.0000,  0.0000)
  37 Cu     6.730301    2.251057   10.099500    ( 0.0000,  0.0000,  0.0000)
  38 Cu     8.134799    2.987516   12.149908    ( 0.0000,  0.0000,  0.0000)
  39 Cu     6.788445    0.723635   12.124880    ( 0.0000,  0.0000,  0.0000)
  40 Cu     8.132451    1.491719   14.249076    ( 0.0000,  0.0000,  0.0000)
  41 Cu     9.436763    3.771182   14.292782    ( 0.0000,  0.0000,  0.0000)
  42 Cu     5.521035   -0.005057   16.391113    ( 0.0000,  0.0000,  0.0000)
  43 Cu     6.836056    2.267901   16.406925    ( 0.0000,  0.0000,  0.0000)
  44 Cu     8.171203    3.040002   18.563714    ( 0.0000,  0.0000,  0.0000)
  45 Cu     6.844314    0.730732   18.509541    ( 0.0000,  0.0000,  0.0000)
  46 Cu     8.159572    1.543977   20.578872    ( 0.0000,  0.0000,  0.0000)
  47 Cu     9.463101    3.745321   20.766708    ( 0.0000,  0.0000,  0.0000)
  48 Cu     8.137169    4.457738   10.118820    ( 0.0000,  0.0000,  0.0000)
  49 Cu     9.434193    5.265468   12.150566    ( 0.0000,  0.0000,  0.0000)
  50 Cu    10.743574    6.035171   14.274300    ( 0.0000,  0.0000,  0.0000)
  51 Cu     8.134717    4.545352   16.455064    ( 0.0000,  0.0000,  0.0000)
  52 Cu     9.457246    5.314236   18.632681    ( 0.0000,  0.0000,  0.0000)
  53 Cu    10.769981    6.015379   20.766684    ( 0.0000,  0.0000,  0.0000)
  54 Cl     5.720641    2.510156   22.500035    ( 0.0000,  0.0000,  0.0000)
  55 Cl     5.022873    3.603522    8.124256    ( 0.0000,  0.0000,  0.0000)
  56 Cl     8.010238    4.491417   22.573969    ( 0.0000,  0.0000,  0.0000)
  57 Cl     2.915493    1.431449    8.112355    ( 0.0000,  0.0000,  0.0000)
  58 Cl     7.705457    5.313573    8.098844    ( 0.0000,  0.0000,  0.0000)
  59 Cl     3.192639    0.624942   22.562706    ( 0.0000,  0.0000,  0.0000)
  60 Cl     3.129084    4.175258   22.560636    ( 0.0000,  0.0000,  0.0000)
  61 Cl     7.806764    2.036867    8.134306    ( 0.0000,  0.0000,  0.0000)
  62 Cl     2.898332    5.897018    8.179543    ( 0.0000,  0.0000,  0.0000)
  63 Cl     7.981457    0.334672   22.516584    ( 0.0000,  0.0000,  0.0000)

Unit cell:
           periodic     x           y           z      points  spacing
  1. axis:    yes    7.851007    0.000000    0.000000    45     0.1511
  2. axis:    yes    3.925503    6.799171    0.000000    45     0.1511
  3. axis:    yes    0.000000    0.000000   30.683867   175     0.1753

  Lengths:   7.851007   7.851006  30.683867
  Angles:   90.000000  90.000000  60.000001

Effective grid spacing dv^(1/3) = 0.1666

     iter     time        total  log10-change:
                         energy  eigst   dens
iter:   1 01:46:11 -4454.908084  -3.86
iter:   2 01:47:12 -4454.921733  -4.33  -3.24
iter:   3 01:48:11 -4454.897197c -4.97  -3.11
iter:   4 01:49:01 -4454.896758c -6.34  -3.77
iter:   5 01:49:50 -4454.896402c -5.52  -3.83
iter:   6 01:50:38 -4454.896531c -6.46  -4.12c
iter:   7 01:51:27 -4454.896556c -6.30  -4.19c
iter:   8 01:52:14 -4454.896506c -7.04  -4.40c
iter:   9 01:53:03 -4454.896441c -6.88  -4.60c
iter:  10 01:53:51 -4454.896430c -7.72c -4.77c

Converged after 10 iterations.

Dipole moment: (-3.749008, -13.155066, 0.027779) |e|*Ang

Energy contributions relative to reference atoms: (reference = -2556707.893378)

Kinetic:       +518.428958
Potential:     -542.645009
External:        +0.000000
XC:            -4429.790861
Entropy (-ST):   -0.504645
Local:           -0.637196
Free energy:   -4455.148753
Extrapolated:  -4454.896430

Showing only first 2 kpts
 Kpt  Band  Eigenvalues  Occupancy
  0   330      0.25748    1.42433
  0   331      0.44711    0.54170
  0   332      0.51903    0.30644
  0   333      0.56970    0.19660

  1   330     -0.09265    1.97592
  1   331      0.03081    1.91958
  1   332      0.17795    1.69139
  1   333      0.34293    1.02570

Fermi level: 0.34808

No gap

Forces in eV/Ang:
  0 Cu   -0.00057    0.00811   -0.00402
  1 Cu    0.00600   -0.01048    0.00493
  2 Cu    0.00898    0.00087    0.00432
  3 Cu    0.00421    0.00194   -0.00331
  4 Cu    0.00582    0.00763   -0.00368
  5 Cu   -0.00541   -0.00025   -0.00416
  6 Cu    0.00480    0.00903    0.00482
  7 Cu    0.00387    0.00440    0.00172
  8 Cu    0.00708   -0.00095   -0.00404
  9 Cu    0.00014    0.00767    0.00395
 10 Cu    0.00068   -0.00290   -0.00367
 11 Cu   -0.00186   -0.00599    0.00275
 12 Cu   -0.00634   -0.00232    0.00377
 13 Cu    0.00955   -0.00369   -0.00492
 14 Cu   -0.00864   -0.00684    0.00200
 15 Cu    0.00225   -0.01244   -0.00292
 16 Cu   -0.00808   -0.00571   -0.00333
 17 Cu   -0.01643    0.00046    0.01027
 18 Cu   -0.00771   -0.01117    0.00572
 19 Cu   -0.00500   -0.00473    0.00103
 20 Cu   -0.01061    0.00260   -0.00315
 21 Cu   -0.00259    0.00703    0.00105
 22 Cu   -0.00730   -0.00431   -0.00183
 23 Cu   -0.00585    0.00721   -0.00305
 24 Cu    0.00839    0.00332    0.01700
 25 Cu    0.00618   -0.00025    0.00104
 26 Cu    0.00539   -0.00810    0.00249
 27 Cu   -0.00121    0.00007   -0.00806
 28 Cu    0.00418    0.00371   -0.01079
 29 Cu    0.00666    0.00337    0.00221
 30 Cu    0.00012   -0.00399   -0.00143
 31 Cu   -0.00068   -0.00203   -0.00092
 32 Cu   -0.00484   -0.00642   -0.00223
 33 Cu   -0.00620   -0.00441   -0.00668
 34 Cu   -0.00791    0.00439    0.00418
 35 Cu   -0.00295   -0.00317   -0.00514
 36 Cu   -0.00210    0.00146    0.00629
 37 Cu    0.01053   -0.00623   -0.00743
 38 Cu    0.00173    0.00606    0.00337
 39 Cu    0.00403    0.00037   -0.00021
 40 Cu    0.00270    0.00530    0.00082
 41 Cu    0.00176    0.00504    0.00816
 42 Cu   -0.00681   -0.00130   -0.00565
 43 Cu    0.00231   -0.00191   -0.00192
 44 Cu   -0.00898   -0.00594    0.00368
 45 Cu    0.00019    0.00828    0.00089
 46 Cu   -0.00999    0.00415    0.01062
 47 Cu   -0.00859    0.00194    0.00023
 48 Cu    0.00354   -0.00085    0.01033
 49 Cu    0.01059    0.00056   -0.00538
 50 Cu    0.01154    0.00425   -0.00239
 51 Cu    0.00002   -0.00197    0.00154
 52 Cu    0.00099   -0.00242    0.00091
 53 Cu   -0.00785   -0.00077   -0.00866
 54 Cl    0.00821   -0.00878   -0.00254
 55 Cl    0.00867   -0.00079   -0.01367
 56 Cl   -0.00893    0.00441   -0.00455
 57 Cl    0.00324    0.00670    0.00532
 58 Cl   -0.00178    0.01176   -0.00493
 59 Cl    0.00335    0.00761   -0.00263
 60 Cl   -0.00520   -0.01797   -0.00251
 61 Cl   -0.00137    0.00572    0.00855
 62 Cl   -0.00448   -0.00204   -0.02174
 63 Cl    0.00768    0.00278    0.02284