User:   thorkong@node253.cluster
Date:   Mon Oct 17 14:40:49 2022
Arch:   x86_64
Pid:    210888
Python: 3.10.5
gpaw:   /groups/kemi/thorkong/miniconda3/envs/gpaw22/lib/python3.10/site-packages/gpaw
_gpaw:  /groups/kemi/thorkong/miniconda3/envs/gpaw22/lib/python3.10/site-packages/
        _gpaw.cpython-310-x86_64-linux-gnu.so
ase:    /groups/kemi/thorkong/miniconda3/envs/gpaw22/lib/python3.10/site-packages/ase (version 3.22.1)
numpy:  /groups/kemi/thorkong/miniconda3/envs/gpaw22/lib/python3.10/site-packages/numpy (version 1.23.0)
scipy:  /groups/kemi/thorkong/miniconda3/envs/gpaw22/lib/python3.10/site-packages/scipy (version 1.8.1)
units:  Angstrom and eV
cores: 32
OpenMP: True
OMP_NUM_THREADS: 1

Input parameters:
  basis: dzp
  kpts: [4 4 1]
  mode: {ecut: 600.0,
         name: pw}
  xc: BEEF-vdW

System changes: positions, numbers, cell, pbc, initial_charges, initial_magmoms

Initialize ...

Cu-setup:
  name: Copper
  id: f1c4d45d90492f1bbfdcb091e8418fdf
  Z: 29.0
  valence: 11
  core: 18
  charge: 0.0
  file: /groups/kemi/thorkong/miniconda3/envs/gpaw22/share/gpaw/Cu.PBE.gz
  compensation charges: gauss, rc=0.33, lmax=2
  cutoffs: 2.06(filt), 2.43(core),
  valence states:
                energy  radius
    4s(1.00)    -4.609   1.164
    4p(0.00)    -0.698   1.164
    3d(10.00)    -5.039   1.058
    *s          22.603   1.164
    *p          26.513   1.164
    *d          22.172   1.058

  LCAO basis set for Cu:
    Name: dzp
    File: /groups/kemi/thorkong/miniconda3/envs/gpaw22/share/gpaw/Cu.dzp.basis.gz
    Number of radial functions: 5
    Number of spherical harmonics: 15
      l=0, rc=8.9688 Bohr: 4s-sz confined orbital
      l=2, rc=5.1719 Bohr: 3d-sz confined orbital
      l=0, rc=5.3281 Bohr: 4s-dz split-valence wave
      l=2, rc=3.1406 Bohr: 3d-dz split-valence wave
      l=1, rc=8.9688 Bohr: p-type Gaussian polarization

Cl-setup:
  name: Chlorine
  id: 726897f06f34e53cf8e33b5885a02604
  Z: 17.0
  valence: 7
  core: 10
  charge: 0.0
  file: /groups/kemi/thorkong/miniconda3/envs/gpaw22/share/gpaw/Cl.PBE.gz
  compensation charges: gauss, rc=0.25, lmax=2
  cutoffs: 1.40(filt), 1.49(core),
  valence states:
                energy  radius
    3s(2.00)   -20.689   0.794
    3p(5.00)    -8.594   0.794
    *s           6.523   0.794
    *p          18.617   0.794
    *d           0.000   0.794

  LCAO basis set for Cl:
    Name: dzp
    File: /groups/kemi/thorkong/miniconda3/envs/gpaw22/share/gpaw/Cl.dzp.basis.gz
    Number of radial functions: 5
    Number of spherical harmonics: 13
      l=0, rc=5.1719 Bohr: 3s-sz confined orbital
      l=1, rc=6.2656 Bohr: 3p-sz confined orbital
      l=0, rc=2.8281 Bohr: 3s-dz split-valence wave
      l=1, rc=3.5156 Bohr: 3p-dz split-valence wave
      l=2, rc=6.2656 Bohr: d-type Gaussian polarization

Reference energy: -2531597.994586

Spin-paired calculation

Convergence criteria:
 Maximum [total energy] change in last 3 cyles: 0.0005 eV / electron
 Maximum integral of absolute [dens]ity change: 0.0001 electrons / valence electron
 Maximum integral of absolute [eigenst]ate change: 4e-08 eV^2 / valence electron
 Maximum number of scf [iter]ations: 333
 (Square brackets indicate name in SCF output, whereas a 'c' in
 the SCF output indicates the quantity has converged.)

Symmetries present (total): 1

  ( 1  0  0)
  ( 0  1  0)
  ( 0  0  1)

16 k-points: 4 x 4 x 1 Monkhorst-Pack grid
8 k-points in the irreducible part of the Brillouin zone
       k-points in crystal coordinates                weights
   0:     0.12500000   -0.37500000    0.00000000          2/16
   1:     0.12500000   -0.12500000    0.00000000          2/16
   2:     0.12500000    0.12500000    0.00000000          2/16
   3:     0.12500000    0.37500000    0.00000000          2/16
   4:     0.37500000   -0.37500000    0.00000000          2/16
   5:     0.37500000   -0.12500000    0.00000000          2/16
   6:     0.37500000    0.12500000    0.00000000          2/16
   7:     0.37500000    0.37500000    0.00000000          2/16

Wave functions: Plane wave expansion
  Cutoff energy: 600.000 eV
  Number of coefficients (min, max): 63070, 63184
  Pulay-stress correction: 0.000000 eV/Ang^3 (de/decut=0.000000)
  Using FFTW library
  ScaLapack parameters: grid=2x2, blocksize=64
  Wavefunction extrapolation:
    Improved wavefunction reuse through dual PAW basis

Occupation numbers: Fermi-Dirac: width=0.1000 eV

Eigensolver
   Davidson(niter=2)

Densities:
  Coarse grid: 45*48*175 grid
  Fine grid: 90*96*350 grid
  Total Charge: 0.000000

Density mixing:
  Method: separate
  Backend: pulay
  Linear mixing parameter: 0.05
  Mixing with 5 old densities
  Damping of long wave oscillations: 50

Hamiltonian:
  XC and Coulomb potentials evaluated on a 90*96*350 grid
  Using the BEEF-vdW Exchange-Correlation functional
  External potential:
    NoExternalPotential

XC parameters: BEEF-vdW with 2 nearest neighbor stencil

Total number of cores used: 32
Parallelization over k-points: 8
Domain decomposition: 1 x 1 x 4
                      2 x 2 x 8 (xc only)

Number of atoms: 62
Number of atomic orbitals: 914
Number of bands in calculation: 394
Number of valence electrons: 650
Bands to converge: occupied

... initialized

Initializing position-dependent things.

Density initialized from atomic densities
Creating initial wave functions:
  394 bands from LCAO basis set

                         Cl
                Cl

        Cl Cu    Cu  Cl Cu
               Cu    Cu     Cu
         Cu    Cu     Cu
       Cu    Cu     Cu    Cu
              Cu
           CCu   CCu    Cu
         Cu    CCu   CCu    Cu

       Cu    CCu    Cu    Cu
           Cu    CCu    Cu
               Cu    Cu     Cu
         Cu     Cu    Cu
       Cu    Cu     Cu    Cu
              Cu    Cu
           Cu     Cu    Cu Cl
                   Cl

[...]

Positions:
   0 Cu     1.851874    1.842086   10.044767    ( 0.0000,  0.0000,  0.0000)
   1 Cu     0.572048    0.518337   11.854739    ( 0.0000,  0.0000,  0.0000)
   2 Cu     3.208369    0.549454   11.826759    ( 0.0000,  0.0000,  0.0000)
   3 Cu     1.885044    1.836608   13.699605    ( 0.0000,  0.0000,  0.0000)
   4 Cu     0.579320    0.526826   15.560947    ( 0.0000,  0.0000,  0.0000)
   5 Cu     3.185437    0.522508   15.555968    ( 0.0000,  0.0000,  0.0000)
   6 Cu     1.901068    1.854575   17.424612    ( 0.0000,  0.0000,  0.0000)
   7 Cu     0.575906    0.561899   19.206760    ( 0.0000,  0.0000,  0.0000)
   8 Cu     3.188310    0.488633   19.210481    ( 0.0000,  0.0000,  0.0000)
   9 Cu     0.574574    3.144633   11.846476    ( 0.0000,  0.0000,  0.0000)
  10 Cu     0.575916    3.143785   15.552326    ( 0.0000,  0.0000,  0.0000)
  11 Cu     0.546349    3.145891   19.206137    ( 0.0000,  0.0000,  0.0000)
  12 Cu     7.147069    1.821677   10.043621    ( 0.0000,  0.0000,  0.0000)
  13 Cu     5.794000    0.540777   11.820405    ( 0.0000,  0.0000,  0.0000)
  14 Cu     7.114080    1.831917   13.694773    ( 0.0000,  0.0000,  0.0000)
  15 Cu     5.808982    0.523918   15.556714    ( 0.0000,  0.0000,  0.0000)
  16 Cu     7.113100    1.827061   17.396972    ( 0.0000,  0.0000,  0.0000)
  17 Cu     5.807880    0.526790   19.217827    ( 0.0000,  0.0000,  0.0000)
  18 Cu     4.494064    1.763231    9.932089    ( 0.0000,  0.0000,  0.0000)
  19 Cu     4.496146    4.525263    9.931071    ( 0.0000,  0.0000,  0.0000)
  20 Cu     3.207669    3.147945   11.830838    ( 0.0000,  0.0000,  0.0000)
  21 Cu     5.791432    3.139321   11.831411    ( 0.0000,  0.0000,  0.0000)
  22 Cu     4.501104    1.833097   13.705422    ( 0.0000,  0.0000,  0.0000)
  23 Cu     4.500286    4.451342   13.700374    ( 0.0000,  0.0000,  0.0000)
  24 Cu     3.191019    3.143173   15.550169    ( 0.0000,  0.0000,  0.0000)
  25 Cu     5.806714    3.142761   15.552225    ( 0.0000,  0.0000,  0.0000)
  26 Cu     4.483820    1.848780   17.430757    ( 0.0000,  0.0000,  0.0000)
  27 Cu     4.483576    4.446716   17.420218    ( 0.0000,  0.0000,  0.0000)
  28 Cu     3.195113    3.070202   19.320757    ( 0.0000,  0.0000,  0.0000)
  29 Cu     5.840799    3.127025   19.209886    ( 0.0000,  0.0000,  0.0000)
  30 Cu     1.850636    4.467419   10.041562    ( 0.0000,  0.0000,  0.0000)
  31 Cu     1.883456    7.067453   10.032493    ( 0.0000,  0.0000,  0.0000)
  32 Cu     0.578168    5.767618   11.853682    ( 0.0000,  0.0000,  0.0000)
  33 Cu     3.207330    5.746015   11.820678    ( 0.0000,  0.0000,  0.0000)
  34 Cu     1.884398    4.451712   13.698510    ( 0.0000,  0.0000,  0.0000)
  35 Cu     1.882140    7.070634   13.694193    ( 0.0000,  0.0000,  0.0000)
  36 Cu     0.577138    5.762455   15.555937    ( 0.0000,  0.0000,  0.0000)
  37 Cu     3.190200    5.761333   15.545038    ( 0.0000,  0.0000,  0.0000)
  38 Cu     1.899950    4.455283   17.419419    ( 0.0000,  0.0000,  0.0000)
  39 Cu     1.897387    7.053708   17.430112    ( 0.0000,  0.0000,  0.0000)
  40 Cu     0.544416    5.772752   19.207193    ( 0.0000,  0.0000,  0.0000)
  41 Cu     3.197353    5.832220   19.317966    ( 0.0000,  0.0000,  0.0000)
  42 Cu     7.144990    4.448863   10.045121    ( 0.0000,  0.0000,  0.0000)
  43 Cu     7.115261    7.033008   10.044024    ( 0.0000,  0.0000,  0.0000)
  44 Cu     5.790284    5.740371   11.826573    ( 0.0000,  0.0000,  0.0000)
  45 Cu     7.115409    4.450638   13.698320    ( 0.0000,  0.0000,  0.0000)
  46 Cu     7.111993    7.067752   13.689826    ( 0.0000,  0.0000,  0.0000)
  47 Cu     5.806194    5.757852   15.551058    ( 0.0000,  0.0000,  0.0000)
  48 Cu     7.116689    4.449777   17.404260    ( 0.0000,  0.0000,  0.0000)
  49 Cu     7.119110    7.076103   17.395949    ( 0.0000,  0.0000,  0.0000)
  50 Cu     5.839650    5.752596   19.206190    ( 0.0000,  0.0000,  0.0000)
  51 Cu     4.502840    7.106124   10.040718    ( 0.0000,  0.0000,  0.0000)
  52 Cu     4.505854    7.072213   13.694900    ( 0.0000,  0.0000,  0.0000)
  53 Cu     4.482985    7.045347   17.423899    ( 0.0000,  0.0000,  0.0000)
  54 Cl     3.111134    4.453599   21.202893    ( 0.0000,  0.0000,  0.0000)
  55 Cl     4.580310    3.143724    8.048163    ( 0.0000,  0.0000,  0.0000)
  56 Cl     1.867046    5.767436    8.237027    ( 0.0000,  0.0000,  0.0000)
  57 Cl     0.561128    1.853895   21.006449    ( 0.0000,  0.0000,  0.0000)
  58 Cl     5.840224    7.039810   21.008038    ( 0.0000,  0.0000,  0.0000)
  59 Cl     7.093286    0.367959    8.057112    ( 0.0000,  0.0000,  0.0000)
  60 Cl     7.130126    5.740935    8.244573    ( 0.0000,  0.0000,  0.0000)
  61 Cl     5.824339    1.826908   21.013856    ( 0.0000,  0.0000,  0.0000)

Unit cell:
           periodic     x           y           z      points  spacing
  1. axis:    yes    7.851007    0.000000    0.000000    45     0.1655
  2. axis:    yes    2.617002    7.851007    0.000000    48     0.1636
  3. axis:    yes    0.000000    0.000000   30.683867   175     0.1753

  Lengths:   7.851007   8.275688  30.683867
  Angles:   90.000000  90.000000  71.565053

Effective grid spacing dv^(1/3) = 0.1710

     iter     time        total  log10-change:
                         energy  eigst   dens
iter:   1 14:46:43 -4541.554573
iter:   2 14:47:54 -4425.684756  -0.01  -0.91
iter:   3 14:48:48 -4393.880147  -1.02  -1.22
[...]
iter:  14 17:48:17 -4383.271281c -6.70  -4.37c
iter:  15 17:49:10 -4383.271291c -7.15  -4.45c
iter:  16 17:50:04 -4383.271280c -7.43c -4.53c

[...]

           Cu    CuCl  Cu
          Cl   Cu    Cu    Cu
         Cu    Cu     Cu
             CCu   Cu     Cu
       Cu           Cu
           Cu    CCu   CCu
         Cu    Cu    CCu   Cu

       Cu    CCu   CCu    Cu
           Cu    CCu   CCu

         Cu    Cu    CCu    Cu
             Cu          Cu
       Cu     Cu   CCu  Cl
           Cu  ClCu     Cu

[...]

           Cu    Cu Cl  Cu
          Cl   Cu    Cu     Cu
         Cu     Cu    Cu
             CCu    Cu    Cu
       Cu           Cu
           CCu   CCu    Cu
         Cu    CCu   CCu    Cu

       Cu    CCu    Cu    Cu
           Cu    CCu    Cu

         Cu    Cu     Cu    Cu
             Cu           Cu
       Cu     Cu   CCu  Cl
           Cu  Cl Cu    Cu

[...]

          Clu    Cu Cl  Cu
               CCu   Cu     Cu
         Cu           Cu
             CCu    Cu    Cu
       Cu
           CCu   CCu    Cu
         Cu    CCu   CCu    Cu

       Cu    CCu    Cu    Cu
           Cu    CCu    Cu
                            Cu
         Cu    Cu     Cu
             Cu           Cu
       Cu     Cu   CCu   Cl
           Cu  Cl Cu    Cu

[...]

          Clu    Cu Cl  Cu
               CCu   Cu     Cu
         Cu           Cu
             CCu    Cu    Cu
       Cu
           CCu   CCu    Cu
         Cu    Cu    CCu    Cu

       Cu    CCu    Cu    Cu
           Cu    CCu    Cu
                            Cu
         Cu    Cu    CCu
             Cu           Cu
       Cu     Cu   CCu   Cl
           Cu  Cl Cu    Cu

[...]

          Clu    Cu Cl  Cu
               Cu    Cu     Cu
         Cu     Cu    Cu
             CCu    Cu    Cu
       Cu               Cu
           CCu   CCu    Cu
         Cu    CCu   CCu    Cu

       Cu    CCu    Cu    Cu
           Cu    CCu    Cu
                            Cu
         Cu    Cu     Cu
             Cu    Cu     Cu
       Cu     Cu    Cu   Cl
            Cu Cl Cu    Cu

[...]

          Clu    Cu Cl  Cu
               CCu   Cu     Cu
         Cu           Cu
       Cu    CCu    Cu    Cu
                 Cu     Cu
           CCu    Cu    Cu
         Cu    Cu    CCu    Cu

       Cu    CCu   CCu    Cu
           Cu    CCu    Cu
                            Cu
         Cu    Cu    CCu
             Cu    Cu     Cu
       Cu     Cu    Cu   Cl
           Cu  Cl Cu    Cu

                  Cl       Cl

[...]

          Clu    CuCl  Cu
               CCu   Cu     Cu
         Cu           Cu
       Cu    CCu   CCu    Cu
           Cu    Cu     Cu
            Cu    Cu    Cu
         Cu    Cu    CCu    Cu

       Cu    CCu   CCu    Cu
           Cu    CCu   CCu
               Cu           Cu
         Cu    Cu    CCu
             Cu    Cu     Cu
       Cu     Cu    Cu  Cl
           Cu  Cl Cu    Cu

[...]

          Clu     CuCl  Cu
               CCu    Cu    Cu
         Cu           Cu
       Cu    CCu    CCu    Cu
           Cu    Cu     Cu
            Cu    Cu     Cu
         Cu    CCu    Cu    Cu

        Cu   CCu    CCu   Cu
           CCu    Cu    CCu
               Cu           Cu
         Cu     Cu    Cu
             CCu    Cu    Cu
        Cu           Cu  Cl
            Cu Cl Cu     Cu

[...]

          Clu     CuCl  Cu
               CCu    Cu    Cu
         Cu           Cu
       Cu    CCu    Cu    Cu
           Cu    Cu     Cu
            Cu    Cu     Cu
         Cu    CCu    Cu    Cu

       Cu    CCu    Cu    Cu
           CCu   CCu    Cu
               Cu     Cu    Cu
         Cu     Cu    Cu
             CCu   CCu    Cu
       Cu                Cl
            Cu Cl Cu    Cu

[...]

       Cu    CCu    Cu    Cu
           CCu   CCu    CCu
               Cu     Cu    Cu
         Cu     Cu    Cu
             CCu   CCu    Cu
       Cu                Cl
            Cu Cl Cu     Cu

[...]

          Clu     CuCl  Cu
               CCu    Cu    Cu
         Cu           Cu
       Cu    CCu    Cu     Cu
           Cu    Cu     Cu
            Cu    Cu     Cu
         Cu    CCu    Cu    Cu

       Cu    CCu    CCu   Cu
           CCu    Cu    CCu
               Cu     Cu    Cu
         Cu     Cu    Cu
             CCu    Cu    Cu
       Cu            Cu  Cl
            Cu Cl Cu     Cu

[...]

       Cu    CCu   CCu    Cu
           Cu    CCu   CCu
               Cu    Cu     Cu
         Cu    Cu     Cu
             CCu   Cu     Cu
       Cu           Cu  Cl
           Cu  Cl Cu    Cu

[...]

          Clu    CuCl  Cu
               CCu   Cu     Cu
         Cu           Cu
       Cu    Cu    CCu    Cu
           Cu    Cu    Cu
           Cu     Cu    Cu
         Cu    Cu    CCu   Cu

[...]

          Clu    CuCl  Cu
               CCu   Cu     Cu
         Cu           Cu
       Cu    CCu   CCu    Cu
           Cu    Cu    Cu
           Cu     Cu    Cu
         Cu    Cu    CCu   Cu

       Cu    CCu   CCu    Cu
           Cu    CCu   CCu
               Cu    Cu     Cu
         Cu    Cu     Cu
             CCu   Cu     Cu
       Cu           Cu  Cl
            Cu Cl Cu    Cu

[...]

          Clu    CuCl  Cu
               Cu    Cu     Cu
         Cu     Cu    Cu
       Cu    CCu    Cu    Cu
           Cu    Cu     Cu
            Cu    Cu    Cu
         Cu    Cu    CCu    Cu

[...]

          Clu    CuCl  Cu
               Cu    Cu     Cu
         Cu     Cu    Cu
       Cu    CCu    Cu    Cu
           Cu    Cu     Cu
            Cu    Cu    Cu
         Cu    Cu    CCu    Cu

[...]

          Clu    CuCl  Cu
               CCu   Cu     Cu
         Cu           Cu
       Cu    CCu    Cu    Cu
           Cu    Cu     Cu
            Cu    Cu    Cu
         Cu    CCu   CCu    Cu

       Cu    CCu   CCu    Cu
           Cu    CCu   CCu
               Cu           Cu
         Cu    Cu    CCu
             Cu    Cu     Cu
       Cu     Cu    Cu  Cl
            Cu Cl Cu    Cu

[...]

          Clu    CuCl  Cu
               CCu   Cu     Cu
         Cu           Cu
       Cu    CCu    Cu    Cu
           Cu    Cu     Cu
            Cu    Cu    Cu
         Cu    CCu   CCu    Cu

       Cu    CCu    Cu    Cu
           Cu    CCu   CCu
               Cu           Cu
         Cu    Cu    CCu
             Cu    Cu     Cu
       Cu     Cu    Cu  Cl
            Cu Cl Cu    Cu

[...]

           Cu    CuCl  Cu
          Cl   CCu   Cu     Cu
         Cu           Cu
       Cu    CCu    Cu    Cu
           Cu    Cu     Cu
            Cu    Cu    Cu
         Cu    CCu   CCu    Cu

       Cu    CCu    Cu    Cu
           CCu   CCu    Cu
               Cu           Cu
         Cu    Cu    CCu
             Cu    Cu     Cu
        Cu    Cu    Cu  Cl
            CuCl  Cu    Cu

[...]

           Cu    CuCl  Cu
          Cl   CCu   Cu     Cu
         Cu           Cu
       Cu    CCu    Cu    Cu
           Cu    Cu     Cu
            Cu    Cu    Cu
         Cu    CCu   CCu    Cu

[...]

           Cu    CuCl  Cu
          Cl   Cu    Cu     Cu
         Cu     Cu    Cu
       Cu    CCu    Cu    Cu
           Cu    Cu     Cu
            Cu    Cu    Cu
         Cu    CCu   CCu    Cu

[...]

System changes: positions

Initializing position-dependent things.

Density initialized from wave functions

                           Cl
              Cl

           Cu    CuCl  Cu
          Cl   Cu    Cu     Cu
         Cu     Cu    Cu
       Cu    CCu    Cu    Cu
           Cu    Cu     Cu
            Cu    Cu    Cu
         Cu    CCu   CCu    Cu

       Cu    CCu    Cu    Cu
           CCu   CCu    Cu
               Cu           Cu
         Cu    Cu    CCu
             Cu    Cu     Cu
        Cu    Cu    Cu  Cl
            CuCl  Cu    Cu

                  Cl       Cl

Positions:
   0 Cu     1.918630    1.791280    9.983663    ( 0.0000,  0.0000,  0.0000)
   1 Cu     0.592169    0.472629   11.833984    ( 0.0000,  0.0000,  0.0000)
   2 Cu     3.185651    0.504092   11.847311    ( 0.0000,  0.0000,  0.0000)
   3 Cu     1.873615    1.813528   13.691562    ( 0.0000,  0.0000,  0.0000)
   4 Cu     0.560475    0.506050   15.550493    ( 0.0000,  0.0000,  0.0000)
   5 Cu     3.175044    0.501779   15.542344    ( 0.0000,  0.0000,  0.0000)
   6 Cu     1.909024    1.818650   17.415912    ( 0.0000,  0.0000,  0.0000)
   7 Cu     0.435355    0.461289   19.189549    ( 0.0000,  0.0000,  0.0000)
   8 Cu     3.061754    0.494754   19.349764    ( 0.0000,  0.0000,  0.0000)
   9 Cu     0.569408    3.145239   11.812606    ( 0.0000,  0.0000,  0.0000)
  10 Cu     0.582639    3.112489   15.539195    ( 0.0000,  0.0000,  0.0000)
  11 Cu     0.647809    3.090625   19.290500    ( 0.0000,  0.0000,  0.0000)
  12 Cu     7.089819    1.852485    9.979445    ( 0.0000,  0.0000,  0.0000)
  13 Cu     5.827571    0.505915   11.830422    ( 0.0000,  0.0000,  0.0000)
  14 Cu     7.123396    1.810684   13.681839    ( 0.0000,  0.0000,  0.0000)
  15 Cu     5.794265    0.517917   15.529576    ( 0.0000,  0.0000,  0.0000)
  16 Cu     7.110754    1.819464   17.385143    ( 0.0000,  0.0000,  0.0000)
  17 Cu     5.714122    0.549180   19.285391    ( 0.0000,  0.0000,  0.0000)
  18 Cu     4.510685    1.747385   10.047864    ( 0.0000,  0.0000,  0.0000)
  19 Cu     4.468981    4.359526    9.913838    ( 0.0000,  0.0000,  0.0000)
  20 Cu     3.162293    3.128577   11.826941    ( 0.0000,  0.0000,  0.0000)
  21 Cu     5.815559    3.120811   11.847669    ( 0.0000,  0.0000,  0.0000)
  22 Cu     4.491192    1.817814   13.697435    ( 0.0000,  0.0000,  0.0000)
  23 Cu     4.489492    4.417875   13.709143    ( 0.0000,  0.0000,  0.0000)
  24 Cu     3.191786    3.128410   15.546877    ( 0.0000,  0.0000,  0.0000)
  25 Cu     5.812188    3.118722   15.548726    ( 0.0000,  0.0000,  0.0000)
  26 Cu     4.457813    1.816343   17.410847    ( 0.0000,  0.0000,  0.0000)
  27 Cu     4.516054    4.428872   17.393150    ( 0.0000,  0.0000,  0.0000)
  28 Cu     3.304952    3.149174   19.348540    ( 0.0000,  0.0000,  0.0000)
  29 Cu     5.923599    3.178131   19.191632    ( 0.0000,  0.0000,  0.0000)
  30 Cu     1.843637    4.420544    9.983446    ( 0.0000,  0.0000,  0.0000)
  31 Cu     1.901807    7.090410    9.993604    ( 0.0000,  0.0000,  0.0000)
  32 Cu     0.575845    5.746554   11.868001    ( 0.0000,  0.0000,  0.0000)
  33 Cu     3.213934    5.714399   11.824156    ( 0.0000,  0.0000,  0.0000)
  34 Cu     1.877149    4.430952   13.701784    ( 0.0000,  0.0000,  0.0000)
  35 Cu     1.877238    7.043839   13.704861    ( 0.0000,  0.0000,  0.0000)
  36 Cu     0.566500    5.742345   15.563250    ( 0.0000,  0.0000,  0.0000)
  37 Cu     3.170220    5.740899   15.550327    ( 0.0000,  0.0000,  0.0000)
  38 Cu     1.886818    4.411785   17.420378    ( 0.0000,  0.0000,  0.0000)
  39 Cu     1.810783    7.058215   17.425463    ( 0.0000,  0.0000,  0.0000)
  40 Cu     0.560788    5.744631   19.343380    ( 0.0000,  0.0000,  0.0000)
  41 Cu     3.212552    5.777134   19.186893    ( 0.0000,  0.0000,  0.0000)
  42 Cu     7.088708    4.462113   10.018132    ( 0.0000,  0.0000,  0.0000)
  43 Cu     7.168317    7.078245   10.050245    ( 0.0000,  0.0000,  0.0000)
  44 Cu     5.786379    5.711063   11.873244    ( 0.0000,  0.0000,  0.0000)
  45 Cu     7.114298    4.426257   13.721910    ( 0.0000,  0.0000,  0.0000)
  46 Cu     7.107797    7.050159   13.697693    ( 0.0000,  0.0000,  0.0000)
  47 Cu     5.808954    5.737810   15.553349    ( 0.0000,  0.0000,  0.0000)
  48 Cu     7.171894    4.428931   17.429212    ( 0.0000,  0.0000,  0.0000)
  49 Cu     7.090622    7.076488   17.414973    ( 0.0000,  0.0000,  0.0000)
  50 Cu     5.760789    5.713818   19.188826    ( 0.0000,  0.0000,  0.0000)
  51 Cu     4.527192    7.012312    9.987205    ( 0.0000,  0.0000,  0.0000)
  52 Cu     4.492797    7.040675   13.715293    ( 0.0000,  0.0000,  0.0000)
  53 Cu     4.466198    7.053918   17.395673    ( 0.0000,  0.0000,  0.0000)
  54 Cl     2.199300    4.853177   21.037466    ( 0.0000,  0.0000,  0.0000)
  55 Cl     4.471926    2.828558    8.070742    ( 0.0000,  0.0000,  0.0000)
  56 Cl     1.987184    5.758203    8.111775    ( 0.0000,  0.0000,  0.0000)
  57 Cl     1.342665    1.431068   21.052571    ( 0.0000,  0.0000,  0.0000)
  58 Cl     6.785824    6.621100   21.039429    ( 0.0000,  0.0000,  0.0000)
  59 Cl     8.434835    1.620173    8.112374    ( 0.0000,  0.0000,  0.0000)
  60 Cl     6.006726    6.070481    8.290582    ( 0.0000,  0.0000,  0.0000)
  61 Cl     5.051476    2.187278   21.060969    ( 0.0000,  0.0000,  0.0000)

Unit cell:
           periodic     x           y           z      points  spacing
  1. axis:    yes    7.851007    0.000000    0.000000    45     0.1655
  2. axis:    yes    2.617002    7.851007    0.000000    48     0.1636
  3. axis:    yes    0.000000    0.000000   30.683867   175     0.1753

  Lengths:   7.851007   8.275688  30.683867
  Angles:   90.000000  90.000000  71.565053

Effective grid spacing dv^(1/3) = 0.1710

     iter     time        total  log10-change:
                         energy  eigst   dens
iter:   1 22:24:43 -4383.819855  -3.50
iter:   2 22:25:36 -4383.818387  -4.51  -3.33
iter:   3 22:26:29 -4383.813377c -5.22  -3.35
iter:   4 22:27:22 -4383.812519c -5.80  -3.61
iter:   5 22:28:15 -4383.812507c -5.29  -3.74
iter:   6 22:29:08 -4383.812230c -5.65  -3.93
iter:   7 22:30:01 -4383.812303c -6.22  -4.19c
iter:   8 22:30:55 -4383.812254c -6.79  -4.29c
iter:   9 22:31:48 -4383.812202c -6.34  -4.35c
iter:  10 22:32:45 -4383.812203c -7.32  -4.56c
iter:  11 22:33:38 -4383.812191c -7.35  -4.64c
iter:  12 22:34:32 -4383.812190c -7.67c -4.83c

Converged after 12 iterations.

Dipole moment: (-35.050448, -30.351260, 0.152147) |e|*Ang

Energy contributions relative to reference atoms: (reference = -2531597.994586)

Kinetic:       +465.393683
Potential:     -502.471489
External:        +0.000000
XC:            -4345.639535
Entropy (-ST):   -0.625385
Local:           -0.782157
Free energy:   -4384.124882
Extrapolated:  -4383.812190

Showing only first 2 kpts
 Kpt  Band  Eigenvalues  Occupancy
  0   323     -0.73411    1.85618
  0   324     -0.71076    1.82172
  0   325     -0.48791    1.04782
  0   326     -0.45697    0.89355

  1   323     -0.72030    1.83662
  1   324     -0.58679    1.49469
  1   325     -0.54230    1.30931
  1   326     -0.41790    0.70669

Fermi level: -0.47834

No gap

Forces in eV/Ang:
  0 Cu   -0.01579    0.00353    0.01147
  1 Cu   -0.00391    0.01380   -0.01387
  2 Cu   -0.00128   -0.00297    0.00454
  3 Cu    0.00473    0.00478   -0.00233
  4 Cu    0.00184    0.00118    0.00241
  5 Cu    0.00053    0.00004   -0.00546
  6 Cu   -0.00417   -0.00453   -0.00213
  7 Cu    0.00714   -0.00321    0.00971
  8 Cu    0.00642    0.00443    0.00325
  9 Cu   -0.00245   -0.00984    0.00891
 10 Cu   -0.00456   -0.00065   -0.00271
 11 Cu    0.00058   -0.00653    0.01105
 12 Cu    0.00779   -0.01166   -0.00331
 13 Cu   -0.00380   -0.00775    0.00044
 14 Cu    0.00275   -0.00055    0.00473
 15 Cu   -0.01569   -0.00378    0.00208
 16 Cu   -0.00409   -0.00277   -0.00111
 17 Cu    0.00398   -0.00498    0.00372
 18 Cu    0.00278   -0.00105   -0.00090
 19 Cu    0.00148    0.01017   -0.01597
 20 Cu    0.00614   -0.00285   -0.01023
 21 Cu   -0.01087    0.00227   -0.00798
 22 Cu    0.00943   -0.00404   -0.00745
 23 Cu    0.00888    0.00190    0.00236
 24 Cu   -0.00433    0.00360   -0.00317
 25 Cu   -0.00206    0.00236    0.00290
 26 Cu    0.00411    0.00539    0.00608
 27 Cu   -0.00531    0.00255    0.00320
 28 Cu    0.00282   -0.01569    0.00001
 29 Cu    0.00330   -0.00093    0.00112
 30 Cu   -0.00261    0.00223    0.00203
 31 Cu    0.01010    0.00627   -0.00140
 32 Cu    0.00197   -0.01629   -0.00786
 33 Cu   -0.01323    0.00462    0.00899
 34 Cu   -0.00131    0.00879   -0.00847
 35 Cu    0.02186   -0.00063    0.00574
 36 Cu   -0.00223   -0.00017    0.00736
 37 Cu    0.00702    0.00044    0.00882
 38 Cu    0.00475   -0.00062    0.00191
 39 Cu   -0.00007    0.00103   -0.00770
 40 Cu    0.00261    0.00088   -0.00672
 41 Cu    0.00892    0.00207    0.00743
 42 Cu   -0.00072    0.00520    0.00505
 43 Cu    0.00859    0.00902   -0.00207
 44 Cu   -0.00281    0.00495   -0.00481
 45 Cu    0.01245    0.01667   -0.00100
 46 Cu    0.00845   -0.01040    0.00201
 47 Cu    0.00381   -0.00632    0.00725
 48 Cu    0.00194   -0.00738    0.00279
 49 Cu   -0.01081   -0.00205    0.01058
 50 Cu    0.00294   -0.00934    0.00109
 51 Cu    0.00461    0.00030    0.00769
 52 Cu   -0.00172   -0.00517   -0.00391
 53 Cu    0.00988    0.00157    0.00344
 54 Cl    0.01445   -0.00766   -0.01296
 55 Cl   -0.02133    0.00397   -0.00377
 56 Cl   -0.00889   -0.00014    0.02004
 57 Cl   -0.00299   -0.00278    0.00560
 58 Cl   -0.00385   -0.00867   -0.00393
 59 Cl   -0.00068    0.02352   -0.00462
 60 Cl   -0.01942   -0.00701   -0.00556
 61 Cl    0.00702   -0.01003    0.00255