User:   thorkong@node030.cluster
Date:   Sun Oct  9 02:29:12 2022
Arch:   x86_64
Pid:    6403
Python: 3.10.5
gpaw:   /groups/kemi/thorkong/miniconda3/envs/gpaw22/lib/python3.10/site-packages/gpaw
_gpaw:  /groups/kemi/thorkong/miniconda3/envs/gpaw22/lib/python3.10/site-packages/
        _gpaw.cpython-310-x86_64-linux-gnu.so
ase:    /groups/kemi/thorkong/miniconda3/envs/gpaw22/lib/python3.10/site-packages/ase (version 3.22.1)
numpy:  /groups/kemi/thorkong/miniconda3/envs/gpaw22/lib/python3.10/site-packages/numpy (version 1.23.0)
scipy:  /groups/kemi/thorkong/miniconda3/envs/gpaw22/lib/python3.10/site-packages/scipy (version 1.8.1)
units:  Angstrom and eV
cores: 32
OpenMP: True
OMP_NUM_THREADS: 1

Input parameters:
  basis: dzp
  kpts: [4 4 1]
  mode: {ecut: 600.0,
         name: pw}
  xc: BEEF-vdW

System changes: positions, numbers, cell, pbc, initial_charges, initial_magmoms

Initialize ...

Cu-setup:
  name: Copper
  id: f1c4d45d90492f1bbfdcb091e8418fdf
  Z: 29.0
  valence: 11
  core: 18
  charge: 0.0
  file: /groups/kemi/thorkong/miniconda3/envs/gpaw22/share/gpaw/Cu.PBE.gz
  compensation charges: gauss, rc=0.33, lmax=2
  cutoffs: 2.06(filt), 2.43(core),
  valence states:
                energy  radius
    4s(1.00)    -4.609   1.164
    4p(0.00)    -0.698   1.164
    3d(10.00)    -5.039   1.058
    *s          22.603   1.164
    *p          26.513   1.164
    *d          22.172   1.058

  LCAO basis set for Cu:
    Name: dzp
    File: /groups/kemi/thorkong/miniconda3/envs/gpaw22/share/gpaw/Cu.dzp.basis.gz
    Number of radial functions: 5
    Number of spherical harmonics: 15
      l=0, rc=8.9688 Bohr: 4s-sz confined orbital
      l=2, rc=5.1719 Bohr: 3d-sz confined orbital
      l=0, rc=5.3281 Bohr: 4s-dz split-valence wave
      l=2, rc=3.1406 Bohr: 3d-dz split-valence wave
      l=1, rc=8.9688 Bohr: p-type Gaussian polarization

Cl-setup:
  name: Chlorine
  id: 726897f06f34e53cf8e33b5885a02604
  Z: 17.0
  valence: 7
  core: 10
  charge: 0.0
  file: /groups/kemi/thorkong/miniconda3/envs/gpaw22/share/gpaw/Cl.PBE.gz
  compensation charges: gauss, rc=0.25, lmax=2
  cutoffs: 1.40(filt), 1.49(core),
  valence states:
                energy  radius
    3s(2.00)   -20.689   0.794
    3p(5.00)    -8.594   0.794
    *s           6.523   0.794
    *p          18.617   0.794
    *d           0.000   0.794

  LCAO basis set for Cl:
    Name: dzp
    File: /groups/kemi/thorkong/miniconda3/envs/gpaw22/share/gpaw/Cl.dzp.basis.gz
    Number of radial functions: 5
    Number of spherical harmonics: 13
      l=0, rc=5.1719 Bohr: 3s-sz confined orbital
      l=1, rc=6.2656 Bohr: 3p-sz confined orbital
      l=0, rc=2.8281 Bohr: 3s-dz split-valence wave
      l=1, rc=3.5156 Bohr: 3p-dz split-valence wave
      l=2, rc=6.2656 Bohr: d-type Gaussian polarization

Reference energy: -2481378.197003

Spin-paired calculation

Convergence criteria:
 Maximum [total energy] change in last 3 cyles: 0.0005 eV / electron
 Maximum integral of absolute [dens]ity change: 0.0001 electrons / valence electron
 Maximum integral of absolute [eigenst]ate change: 4e-08 eV^2 / valence electron
 Maximum number of scf [iter]ations: 333
 (Square brackets indicate name in SCF output, whereas a 'c' in
 the SCF output indicates the quantity has converged.)

Symmetries present (total): 1

  ( 1  0  0)
  ( 0  1  0)
  ( 0  0  1)

16 k-points: 4 x 4 x 1 Monkhorst-Pack grid
8 k-points in the irreducible part of the Brillouin zone
       k-points in crystal coordinates                weights
   0:     0.12500000   -0.37500000    0.00000000          2/16
   1:     0.12500000   -0.12500000    0.00000000          2/16
   2:     0.12500000    0.12500000    0.00000000          2/16
   3:     0.12500000    0.37500000    0.00000000          2/16
   4:     0.37500000   -0.37500000    0.00000000          2/16
   5:     0.37500000   -0.12500000    0.00000000          2/16
   6:     0.37500000    0.12500000    0.00000000          2/16
   7:     0.37500000    0.37500000    0.00000000          2/16

Wave functions: Plane wave expansion
  Cutoff energy: 600.000 eV
  Number of coefficients (min, max): 63070, 63184
  Pulay-stress correction: 0.000000 eV/Ang^3 (de/decut=0.000000)
  Using FFTW library
  ScaLapack parameters: grid=2x2, blocksize=64
  Wavefunction extrapolation:
    Improved wavefunction reuse through dual PAW basis

Occupation numbers: Fermi-Dirac: width=0.1000 eV

Eigensolver
   Davidson(niter=2)

Densities:
  Coarse grid: 45*48*175 grid
  Fine grid: 90*96*350 grid
  Total Charge: 0.000000

Density mixing:
  Method: separate
  Backend: pulay
  Linear mixing parameter: 0.05
  Mixing with 5 old densities
  Damping of long wave oscillations: 50

Hamiltonian:
  XC and Coulomb potentials evaluated on a 90*96*350 grid
  Using the BEEF-vdW Exchange-Correlation functional
  External potential:
    NoExternalPotential

XC parameters: BEEF-vdW with 2 nearest neighbor stencil

Total number of cores used: 32
Parallelization over k-points: 8
Domain decomposition: 1 x 1 x 4
                      2 x 2 x 8 (xc only)

Number of atoms: 58
Number of atomic orbitals: 862
Number of bands in calculation: 378
Number of valence electrons: 622
Bands to converge: occupied

... initialized

Initializing position-dependent things.

Density initialized from atomic densities
Creating initial wave functions:
  378 bands from LCAO basis set

                   Cl
           CCl   Cu     Cu

         Cu    Cu    CCu    Cu

       Cu    CCu    Cu    Cu
           Cu    CCu    Cu
               Cu
         Cu    Cu    CCu    Cu
       Cu    CCu    Cu    Cu
                    Cu
           Cu    CCu    Cu
         Cu    Cu    CCu    Cu

       Cu    CCu    Cu    Cu

           Cu     Cu   CCu
                Cl

Positions:
   0 Cu     1.876373    1.846538    9.981372    ( 0.0000,  0.0000,  0.0000)
   1 Cu     0.582979    0.540760   11.838981    ( 0.0000,  0.0000,  0.0000)
   2 Cu     3.190589    0.529287   11.840013    ( 0.0000,  0.0000,  0.0000)
   3 Cu     1.884864    1.829627   13.710904    ( 0.0000,  0.0000,  0.0000)
   4 Cu     0.577143    0.519763   15.557930    ( 0.0000,  0.0000,  0.0000)
   5 Cu     3.193204    0.522909   15.561044    ( 0.0000,  0.0000,  0.0000)
   6 Cu     1.881051    1.833896   17.404681    ( 0.0000,  0.0000,  0.0000)
   7 Cu     0.570735    0.536509   19.267268    ( 0.0000,  0.0000,  0.0000)
   8 Cu     3.213996    0.492110   19.245990    ( 0.0000,  0.0000,  0.0000)
   9 Cu     0.574743    3.138825   11.849434    ( 0.0000,  0.0000,  0.0000)
  10 Cu     0.569725    3.139357   15.556220    ( 0.0000,  0.0000,  0.0000)
  11 Cu     0.545767    3.176256   19.245527    ( 0.0000,  0.0000,  0.0000)
  12 Cu     7.123287    1.826508   10.021064    ( 0.0000,  0.0000,  0.0000)
  13 Cu     5.799602    0.515470   11.836217    ( 0.0000,  0.0000,  0.0000)
  14 Cu     7.114186    1.828251   13.707563    ( 0.0000,  0.0000,  0.0000)
  15 Cu     5.803409    0.523044   15.547608    ( 0.0000,  0.0000,  0.0000)
  16 Cu     7.113496    1.832922   17.405763    ( 0.0000,  0.0000,  0.0000)
  17 Cu     5.813894    0.516933   19.225104    ( 0.0000,  0.0000,  0.0000)
  18 Cu     4.522571    1.801727   10.001818    ( 0.0000,  0.0000,  0.0000)
  19 Cu     4.490825    4.441424   10.051694    ( 0.0000,  0.0000,  0.0000)
  20 Cu     3.184321    3.136104   11.854972    ( 0.0000,  0.0000,  0.0000)
  21 Cu     5.815078    3.136052   11.854315    ( 0.0000,  0.0000,  0.0000)
  22 Cu     4.500531    1.836999   13.696123    ( 0.0000,  0.0000,  0.0000)
  23 Cu     4.497177    4.451094   13.686310    ( 0.0000,  0.0000,  0.0000)
  24 Cu     3.194120    3.142968   15.564502    ( 0.0000,  0.0000,  0.0000)
  25 Cu     5.811373    3.149302   15.553696    ( 0.0000,  0.0000,  0.0000)
  26 Cu     4.506265    1.829415   17.398763    ( 0.0000,  0.0000,  0.0000)
  27 Cu     4.507093    4.457970   17.395805    ( 0.0000,  0.0000,  0.0000)
  28 Cu     3.200555    3.152478   19.199158    ( 0.0000,  0.0000,  0.0000)
  29 Cu     5.831009    3.115973   19.251273    ( 0.0000,  0.0000,  0.0000)
  30 Cu     1.860491    4.477860    9.999706    ( 0.0000,  0.0000,  0.0000)
  31 Cu     1.877418    7.077033   10.025166    ( 0.0000,  0.0000,  0.0000)
  32 Cu     0.577979    5.761129   11.845039    ( 0.0000,  0.0000,  0.0000)
  33 Cu     3.184983    5.764703   11.852036    ( 0.0000,  0.0000,  0.0000)
  34 Cu     1.879919    4.444733   13.697045    ( 0.0000,  0.0000,  0.0000)
  35 Cu     1.887858    7.071028   13.703280    ( 0.0000,  0.0000,  0.0000)
  36 Cu     0.577088    5.765696   15.543261    ( 0.0000,  0.0000,  0.0000)
  37 Cu     3.190790    5.757024   15.554676    ( 0.0000,  0.0000,  0.0000)
  38 Cu     1.876322    4.457815   17.396533    ( 0.0000,  0.0000,  0.0000)
  39 Cu     1.891851    7.078482   17.414489    ( 0.0000,  0.0000,  0.0000)
  40 Cu     0.568095    5.767479   19.229128    ( 0.0000,  0.0000,  0.0000)
  41 Cu     3.168832    5.792108   19.249181    ( 0.0000,  0.0000,  0.0000)
  42 Cu     7.145701    4.417655   10.005516    ( 0.0000,  0.0000,  0.0000)
  43 Cu     7.120481    7.057333    9.984072    ( 0.0000,  0.0000,  0.0000)
  44 Cu     5.810223    5.760029   11.846215    ( 0.0000,  0.0000,  0.0000)
  45 Cu     7.121588    4.454695   13.694503    ( 0.0000,  0.0000,  0.0000)
  46 Cu     7.114219    7.074235   13.692851    ( 0.0000,  0.0000,  0.0000)
  47 Cu     5.806436    5.764393   15.539837    ( 0.0000,  0.0000,  0.0000)
  48 Cu     7.116498    4.455085   17.401419    ( 0.0000,  0.0000,  0.0000)
  49 Cu     7.108214    7.053218   17.411701    ( 0.0000,  0.0000,  0.0000)
  50 Cu     5.815075    5.747460   19.269958    ( 0.0000,  0.0000,  0.0000)
  51 Cu     4.477438    7.101740   10.004916    ( 0.0000,  0.0000,  0.0000)
  52 Cu     4.498053    7.071078   13.689749    ( 0.0000,  0.0000,  0.0000)
  53 Cu     4.500709    7.064699   17.411041    ( 0.0000,  0.0000,  0.0000)
  54 Cl     4.436901    4.394090   21.378462    ( 0.0000,  0.0000,  0.0000)
  55 Cl     3.254655    3.199624    7.872466    ( 0.0000,  0.0000,  0.0000)
  56 Cl     1.956795    1.927608   21.359335    ( 0.0000,  0.0000,  0.0000)
  57 Cl     5.734664    5.665965    7.891690    ( 0.0000,  0.0000,  0.0000)

Unit cell:
           periodic     x           y           z      points  spacing
  1. axis:    yes    7.851007    0.000000    0.000000    45     0.1655
  2. axis:    yes    2.617002    7.851007    0.000000    48     0.1636
  3. axis:    yes    0.000000    0.000000   30.683867   175     0.1753

  Lengths:   7.851007   8.275688  30.683867
  Angles:   90.000000  90.000000  71.565053

Effective grid spacing dv^(1/3) = 0.1710

     iter     time        total  log10-change:
                         energy  eigst   dens
iter:   1 02:34:09 -4294.296510
iter:   2 02:34:59 -4259.512053  -0.78  -1.07
iter:   3 02:35:46 -4245.104033  -1.45  -1.27
iter:   4 02:36:33 -4237.028966  -1.59  -1.35
iter:   5 02:37:25 -4235.281142  -1.50  -1.49
iter:   6 02:38:22 -4236.095072  -1.89  -1.70
iter:   7 02:39:12 -4234.767289  -1.82  -1.89
iter:   8 02:40:13 -4234.242491  -2.99  -2.18
iter:   9 02:41:04 -4233.987831  -2.42  -2.28
iter:  10 02:41:51 -4233.910274  -3.86  -2.63
iter:  11 02:42:39 -4233.877374c -3.74  -2.74
iter:  12 02:43:32 -4233.869913c -4.25  -2.86
iter:  13 02:44:19 -4233.871605c -4.20  -2.91
iter:  14 02:45:06 -4233.861953c -4.29  -3.02
iter:  15 02:46:12 -4233.858886c -4.64  -3.28
iter:  16 02:47:01 -4233.856424c -5.11  -3.37
iter:  17 02:47:50 -4233.854854c -4.78  -3.47
iter:  18 02:48:39 -4233.854791c -5.95  -3.73
iter:  19 02:49:27 -4233.854745c -5.92  -3.76
iter:  20 02:50:16 -4233.854678c -6.09  -3.84
iter:  21 02:51:12 -4233.854497c -6.07  -3.92
iter:  22 02:52:00 -4233.854485c -6.81  -4.22c
iter:  23 02:52:47 -4233.854487c -6.84  -4.28c
iter:  24 02:53:34 -4233.854525c -6.74  -4.37c
iter:  25 02:54:26 -4233.854533c -7.47c -4.48c

Converged after 25 iterations.

Dipole moment: (-13.359487, -27.384022, 0.000636) |e|*Ang

Energy contributions relative to reference atoms: (reference = -2481378.197003)

Kinetic:       +404.699122
Potential:     -449.729039
External:        +0.000000
XC:            -4187.649553
Entropy (-ST):   -0.601194
Local:           -0.874468
Free energy:   -4234.155130
Extrapolated:  -4233.854533

Showing only first 2 kpts
 Kpt  Band  Eigenvalues  Occupancy
  0   309     -1.27400    1.92220
  0   310     -1.11404    1.66612
  0   311     -1.02846    1.35910
  0   312     -0.92254    0.84744

  1   309     -1.30627    1.94305
  1   310     -1.22949    1.88118
  1   311     -1.16465    1.78444
  1   312     -1.09466    1.60869

Fermi level: -0.95329

No gap

Forces in eV/Ang:
  0 Cu    0.07357    0.08615   -0.22002
  1 Cu    0.08816   -0.04827   -0.13661
  2 Cu   -0.00440   -0.01216   -0.15068
  3 Cu   -0.00583    0.02976   -0.01203
  4 Cu   -0.00685    0.02840    0.01105
  5 Cu   -0.00403    0.00103   -0.11152
  6 Cu    0.04776    0.01682    0.00838
  7 Cu    0.06092    0.08807    0.19457
  8 Cu   -0.08650    0.15915    0.23524
  9 Cu    0.00075    0.06299   -0.15607
 10 Cu    0.01546    0.01684   -0.06182
 11 Cu    0.19301   -0.10954    0.24494
 12 Cu    0.00126   -0.03178    0.07080
 13 Cu   -0.08246    0.03674   -0.11862
 14 Cu    0.01248   -0.01670   -0.02589
 15 Cu    0.01431   -0.02297    0.05016
 16 Cu    0.01317    0.06662    0.13629
 17 Cu    0.00326   -0.02493   -0.06105
 18 Cu   -0.09964    0.14047   -0.24547
 19 Cu    0.03868    0.02675   -0.71343
 20 Cu    0.05076    0.03640   -0.04338
 21 Cu   -0.03538    0.01044   -0.11958
 22 Cu   -0.00495   -0.01794    0.10272
 23 Cu    0.00571    0.00455    0.08333
 24 Cu   -0.00588   -0.00463   -0.08451
 25 Cu   -0.01231   -0.01930   -0.10757
 26 Cu   -0.03985    0.01351    0.12431
 27 Cu   -0.05087   -0.03625    0.04265
 28 Cu   -0.03856   -0.02659    0.71428
 29 Cu   -0.15582    0.09549    0.22282
 30 Cu    0.15556   -0.09504   -0.22517
 31 Cu   -0.00325    0.02500    0.06006
 32 Cu   -0.01350   -0.06655   -0.13667
 33 Cu    0.04000   -0.01350   -0.12537
 34 Cu    0.01246    0.01950    0.10615
 35 Cu   -0.01424    0.02290   -0.05161
 36 Cu   -0.01243    0.01713    0.02443
 37 Cu    0.00477    0.01816   -0.10420
 38 Cu    0.03521   -0.01011    0.11840
 39 Cu    0.08266   -0.03622    0.11832
 40 Cu   -0.00136    0.03204   -0.07155
 41 Cu    0.09955   -0.14033    0.24268
 42 Cu   -0.19304    0.10959   -0.24794
 43 Cu   -0.06070   -0.08765   -0.19552
 44 Cu   -0.04783   -0.01669   -0.00915
 45 Cu   -0.01558   -0.01686    0.06045
 46 Cu    0.00666   -0.02811   -0.01212
 47 Cu    0.00575   -0.02947    0.01056
 48 Cu   -0.00067   -0.06263    0.15542
 49 Cu   -0.08856    0.04824    0.13644
 50 Cu   -0.07386   -0.08661    0.21933
 51 Cu    0.08635   -0.15881   -0.23775
 52 Cu    0.00398   -0.00069    0.11031
 53 Cu    0.00437    0.01234    0.14994
 54 Cl    0.24517    0.24475   -1.22557
 55 Cl   -0.24518   -0.24480    1.22724
 56 Cl   -0.26278   -0.24384   -1.21824
 57 Cl    0.26275    0.24390    1.21976

System changes: positions

[...]

Density initialized from wave functions

                   Cl

          CCl   Cu     Cu
         Cu   CCu   CCu    Cu

       Cu    CCu   CCu   Cu
          CCu    CCu   CCu

         Cu   CCu   CCu    Cu
       Cu    CCu   CCu   Cu

          CCu   CCu    CCu
         Cu   CCu   CCu    Cu

       Cu    CCu   CCu   Cu
           Cu     Cu   CCu

[...]

          CCl    Cu    Cu
         Cu   CCu   CCu    Cu
       Cu
             CCu   CCu   Cu
          CCu    Cu    CCu

[...]

          CCu    Cu    CCu
         Cu   CCu   CCu
                           Cu
       Cu    CCu   CCu   Cu
           Cu    Cu    CCu

[...]

       Cu    CCu   CCu   Cu
          CCu    Cu    CCu

[...]

          CCu    Cu    CCu
         Cu   CCu   CCu    Cu

[...]

                    Cl
           Cl    Cu     Cu
               Cu    Cu     Cu
         Cu    Cu     Cu
       Cu    CCu   CCu    Cu

           Cu    CCu    Cu
         Cu    Cu    CCu    Cu

       Cu    CCu    Cu    Cu
           Cu    CCu    Cu

         Cu    CCu   CCu    Cu
             Cu     Cu    Cu
       Cu     Cu    Cu
           Cu     Cu    Cu
               Cl

[...]

                    Cl
           Cl    Cu     Cu
               Cu    Cu     Cu
         Cu    Cu     Cu
       Cu    CCu   CCu    Cu
           Cu
           Cu    CCu    Cu
         Cu    Cu    CCu    Cu

       Cu    CCu    Cu    Cu
           Cu    CCu    Cu
                        Cu
         Cu    CCu   CCu    Cu
             Cu     Cu    Cu
       Cu     Cu    Cu
           Cu     Cu    Cu
               Cl

[...]

                    Cl
           Cl    Cu     Cu
               Cu    Cu     Cu
         Cu    Cu     Cu
       Cu    CCu   CCu    Cu
           Cu
           Cu    CCu    Cu
         Cu    Cu    CCu    Cu

       Cu    CCu    Cu    Cu
           Cu    CCu    Cu
                        Cu
         Cu    CCu   CCu    Cu
             Cu     Cu    Cu
       Cu     Cu    Cu
           Cu     Cu    Cu
               Cl

[...]

                    Cl
           Cl    Cu     Cu
               Cu    Cu     Cu
         Cu    Cu     Cu
       Cu    CCu    Cu    Cu
           Cu
           Cu    CCu    Cu
         Cu    Cu    CCu    Cu

       Cu    CCu    Cu    Cu
           Cu    CCu    Cu
                        Cu
         Cu    Cu    CCu    Cu
             Cu     Cu    Cu
       Cu     Cu    Cu
           Cu     Cu    Cu
               Cl

[...]

                    Cl
           Cl    Cu     Cu
               Cu    Cu     Cu
         Cu    Cu     Cu
       Cu    CCu    Cu    Cu
           Cu
           Cu    CCu    Cu
         Cu    Cu    CCu    Cu

       Cu    CCu    Cu    Cu
           Cu    CCu    Cu
                        Cu
         Cu    Cu    CCu    Cu
             Cu     Cu    Cu
       Cu     Cu    Cu
           Cu     Cu    Cu
               Cl

[...]

System changes: positions

Initializing position-dependent things.

Density initialized from wave functions

[...]

          CCl   Cu     Cu
         Cu   CCu   CCu    Cu

       Cu    CCu   CCu   Cu
          CCu    Cu    CCu

         Cu   CCu   CCu    Cu
       Cu    CCu   CCu   Cu

          CCu    Cu    CCu
         Cu   CCu   CCu    Cu

       Cu    CCu   CCu   Cu
           Cu     Cu   CCu

               Cl

Positions:
   0 Cu     1.830585    1.824606    9.968821    ( 0.0000,  0.0000,  0.0000)
   1 Cu     0.614437    0.529976   11.810811    ( 0.0000,  0.0000,  0.0000)
   2 Cu     3.191355    0.523209   11.809698    ( 0.0000,  0.0000,  0.0000)
   3 Cu     1.881157    1.843321   13.682926    ( 0.0000,  0.0000,  0.0000)
   4 Cu     0.574312    0.540370   15.562855    ( 0.0000,  0.0000,  0.0000)
   5 Cu     3.194291    0.520609   15.540132    ( 0.0000,  0.0000,  0.0000)
   6 Cu     1.893978    1.841221   17.393147    ( 0.0000,  0.0000,  0.0000)
   7 Cu     0.524444    0.518402   19.280121    ( 0.0000,  0.0000,  0.0000)
   8 Cu     3.224736    0.513360   19.273440    ( 0.0000,  0.0000,  0.0000)
   9 Cu     0.570396    3.157237   11.814118    ( 0.0000,  0.0000,  0.0000)
  10 Cu     0.570591    3.146918   15.547293    ( 0.0000,  0.0000,  0.0000)
  11 Cu     0.561528    3.201834   19.269310    ( 0.0000,  0.0000,  0.0000)
  12 Cu     7.103381    1.811992   10.037461    ( 0.0000,  0.0000,  0.0000)
  13 Cu     5.766218    0.517236   11.812261    ( 0.0000,  0.0000,  0.0000)
  14 Cu     7.115715    1.819873   13.680719    ( 0.0000,  0.0000,  0.0000)
  15 Cu     5.807857    0.509659   15.569989    ( 0.0000,  0.0000,  0.0000)
  16 Cu     7.115418    1.849726   17.434003    ( 0.0000,  0.0000,  0.0000)
  17 Cu     5.797262    0.505702   19.214764    ( 0.0000,  0.0000,  0.0000)
  18 Cu     4.531120    1.817014    9.976761    ( 0.0000,  0.0000,  0.0000)
  19 Cu     4.498927    4.449800    9.984804    ( 0.0000,  0.0000,  0.0000)
  20 Cu     3.199403    3.149388   11.857708    ( 0.0000,  0.0000,  0.0000)
  21 Cu     5.800678    3.146449   11.831333    ( 0.0000,  0.0000,  0.0000)
  22 Cu     4.505377    1.822848   13.704903    ( 0.0000,  0.0000,  0.0000)
  23 Cu     4.499940    4.452444   13.703452    ( 0.0000,  0.0000,  0.0000)
  24 Cu     3.191305    3.141941   15.546785    ( 0.0000,  0.0000,  0.0000)
  25 Cu     5.814791    3.131279   15.544952    ( 0.0000,  0.0000,  0.0000)
  26 Cu     4.491955    1.837537   17.420806    ( 0.0000,  0.0000,  0.0000)
  27 Cu     4.491835    4.444951   17.392853    ( 0.0000,  0.0000,  0.0000)
  28 Cu     3.192310    3.144560   19.266350    ( 0.0000,  0.0000,  0.0000)
  29 Cu     5.822032    3.088271   19.266741    ( 0.0000,  0.0000,  0.0000)
  30 Cu     1.869300    4.505676    9.984917    ( 0.0000,  0.0000,  0.0000)
  31 Cu     1.894095    7.088422   10.035273    ( 0.0000,  0.0000,  0.0000)
  32 Cu     0.575917    5.744810   11.816931    ( 0.0000,  0.0000,  0.0000)
  33 Cu     3.199165    5.757022   11.830038    ( 0.0000,  0.0000,  0.0000)
  34 Cu     1.876368    4.463094   13.705347    ( 0.0000,  0.0000,  0.0000)
  35 Cu     1.883319    7.084721   13.680930    ( 0.0000,  0.0000,  0.0000)
  36 Cu     0.575451    5.774415   15.570152    ( 0.0000,  0.0000,  0.0000)
  37 Cu     3.185903    5.771413   15.545365    ( 0.0000,  0.0000,  0.0000)
  38 Cu     1.890685    4.447683   17.419459    ( 0.0000,  0.0000,  0.0000)
  39 Cu     1.925492    7.076957   17.438444    ( 0.0000,  0.0000,  0.0000)
  40 Cu     0.587949    5.782144   19.212631    ( 0.0000,  0.0000,  0.0000)
  41 Cu     3.160235    5.777250   19.274708    ( 0.0000,  0.0000,  0.0000)
  42 Cu     7.129884    4.392339    9.982162    ( 0.0000,  0.0000,  0.0000)
  43 Cu     7.166822    7.075783    9.971063    ( 0.0000,  0.0000,  0.0000)
  44 Cu     5.797322    5.753105   11.857447    ( 0.0000,  0.0000,  0.0000)
  45 Cu     7.120605    4.447494   13.703082    ( 0.0000,  0.0000,  0.0000)
  46 Cu     7.116951    7.053951   13.687814    ( 0.0000,  0.0000,  0.0000)
  47 Cu     5.810037    5.750994   15.567649    ( 0.0000,  0.0000,  0.0000)
  48 Cu     7.120703    4.436766   17.436886    ( 0.0000,  0.0000,  0.0000)
  49 Cu     7.076514    7.064396   17.439913    ( 0.0000,  0.0000,  0.0000)
  50 Cu     5.860839    5.769646   19.282249    ( 0.0000,  0.0000,  0.0000)
  51 Cu     4.466763    7.080950    9.978137    ( 0.0000,  0.0000,  0.0000)
  52 Cu     4.496915    7.073771   13.710199    ( 0.0000,  0.0000,  0.0000)
  53 Cu     4.499949    7.071161   17.441296    ( 0.0000,  0.0000,  0.0000)
  54 Cl     4.587171    4.568541   21.002744    ( 0.0000,  0.0000,  0.0000)
  55 Cl     3.104436    3.025292    8.248290    ( 0.0000,  0.0000,  0.0000)
  56 Cl     1.769471    1.736411   21.001359    ( 0.0000,  0.0000,  0.0000)
  57 Cl     5.922013    5.857317    8.249848    ( 0.0000,  0.0000,  0.0000)

Unit cell:
           periodic     x           y           z      points  spacing
  1. axis:    yes    7.851007    0.000000    0.000000    45     0.1655
  2. axis:    yes    2.617002    7.851007    0.000000    48     0.1636
  3. axis:    yes    0.000000    0.000000   30.683867   175     0.1753

  Lengths:   7.851007   8.275688  30.683867
  Angles:   90.000000  90.000000  71.565053

Effective grid spacing dv^(1/3) = 0.1710

     iter     time        total  log10-change:
                         energy  eigst   dens
iter:   1 05:00:58 -4235.241400  -3.71
iter:   2 05:01:53 -4235.201761  -4.20  -2.91
iter:   3 05:02:52 -4235.200697c -4.98  -3.49
iter:   4 05:03:38 -4235.199853c -5.86  -3.66
iter:   5 05:04:30 -4235.199414c -5.46  -3.78
iter:   6 05:05:19 -4235.199309c -6.22  -4.06c
iter:   7 05:06:10 -4235.199327c -6.28  -4.20c
iter:   8 05:06:57 -4235.199316c -7.52c -4.40c

Converged after 8 iterations.

Dipole moment: (-14.114464, -27.492030, 0.000297) |e|*Ang

Energy contributions relative to reference atoms: (reference = -2481378.197003)

Kinetic:       +420.009462
Potential:     -461.706424
External:        +0.000000
XC:            -4192.335845
Entropy (-ST):   -0.585111
Local:           -0.873954
Free energy:   -4235.491872
Extrapolated:  -4235.199316

Showing only first 2 kpts
 Kpt  Band  Eigenvalues  Occupancy
  0   309     -0.74187    1.94623
  0   310     -0.60114    1.79715
  0   311     -0.48543    1.47167
  0   312     -0.33656    0.77194

  1   309     -0.72688    1.93780
  1   310     -0.68922    1.91062
  1   311     -0.55111    1.68612
  1   312     -0.45083    1.32676

Fermi level: -0.38299

No gap

Forces in eV/Ang:
  0 Cu    0.00212   -0.00222   -0.00226
  1 Cu   -0.00088    0.00178   -0.00464
  2 Cu   -0.00100    0.00256   -0.00068
  3 Cu    0.00001   -0.00047    0.00139
  4 Cu    0.00150   -0.00138    0.01133
  5 Cu   -0.00139   -0.00211    0.00185
  6 Cu   -0.00030    0.00515    0.01765
  7 Cu    0.00227   -0.00355    0.00044
  8 Cu   -0.00721    0.00096   -0.00395
  9 Cu    0.00597   -0.00435   -0.00484
 10 Cu   -0.00194   -0.00076    0.00358
 11 Cu   -0.00829   -0.00981   -0.00106
 12 Cu   -0.00844    0.00429    0.00738
 13 Cu    0.00281    0.00324   -0.00287
 14 Cu   -0.00379   -0.00276   -0.01264
 15 Cu   -0.00319    0.00338    0.01784
 16 Cu    0.00382   -0.00193    0.00394
 17 Cu   -0.00988    0.00431   -0.00827
 18 Cu   -0.00437    0.00148    0.00415
 19 Cu    0.00008    0.00016   -0.00234
 20 Cu   -0.00241    0.00255   -0.01419
 21 Cu   -0.01246    0.01019   -0.01336
 22 Cu   -0.00092    0.00032    0.00243
 23 Cu    0.00092    0.00264    0.01333
 24 Cu   -0.00091   -0.00256   -0.01311
 25 Cu    0.00097    0.00128   -0.00182
 26 Cu   -0.01367    0.01062    0.01359
 27 Cu    0.00263   -0.00217    0.01524
 28 Cu   -0.00014    0.00007    0.00271
 29 Cu    0.00778    0.00761   -0.00136
 30 Cu   -0.00776   -0.00724    0.00132
 31 Cu    0.01004   -0.00416    0.00966
 32 Cu   -0.00375    0.00146   -0.00431
 33 Cu    0.01388   -0.01094   -0.01367
 34 Cu   -0.00088   -0.00121    0.00251
 35 Cu    0.00313   -0.00334   -0.01702
 36 Cu    0.00385    0.00281    0.01332
 37 Cu    0.00086   -0.00006   -0.00172
 38 Cu    0.01227   -0.00982    0.01338
 39 Cu   -0.00344   -0.00315    0.00248
 40 Cu    0.00842   -0.00421   -0.00587
 41 Cu    0.00463   -0.00149   -0.00362
 42 Cu    0.00814    0.00956    0.00134
 43 Cu   -0.00195    0.00399    0.00063
 44 Cu    0.00001   -0.00532   -0.01674
 45 Cu    0.00180    0.00094   -0.00288
 46 Cu   -0.00152    0.00145   -0.01057
 47 Cu   -0.00001    0.00067   -0.00092
 48 Cu   -0.00599    0.00498    0.00437
 49 Cu    0.00155   -0.00181    0.00438
 50 Cu   -0.00239    0.00213    0.00379
 51 Cu    0.00677   -0.00066    0.00443
 52 Cu    0.00147    0.00199   -0.00118
 53 Cu    0.00103   -0.00257    0.00078
 54 Cl   -0.00622    0.00890   -0.00828
 55 Cl    0.00619   -0.00897    0.00894
 56 Cl   -0.00779   -0.01343   -0.01172
 57 Cl    0.00783    0.01367    0.01210