User:   thorkong@node248.cluster
Date:   Wed Jul 20 20:12:00 2022
Arch:   x86_64
Pid:    182955
Python: 3.10.5
gpaw:   /groups/kemi/thorkong/miniconda3/envs/gpaw22/lib/python3.10/site-packages/gpaw
_gpaw:  /groups/kemi/thorkong/miniconda3/envs/gpaw22/lib/python3.10/site-packages/
        _gpaw.cpython-310-x86_64-linux-gnu.so
ase:    /groups/kemi/thorkong/miniconda3/envs/gpaw22/lib/python3.10/site-packages/ase (version 3.22.1)
numpy:  /groups/kemi/thorkong/miniconda3/envs/gpaw22/lib/python3.10/site-packages/numpy (version 1.23.0)
scipy:  /groups/kemi/thorkong/miniconda3/envs/gpaw22/lib/python3.10/site-packages/scipy (version 1.8.1)
units:  Angstrom and eV
cores: 32
OpenMP: True
OMP_NUM_THREADS: 1

Input parameters:
  basis: dzp
  kpts: [4 4 1]
  mode: {ecut: 600.0,
         name: pw}
  xc: BEEF-vdW

System changes: positions, numbers, cell, pbc, initial_charges, initial_magmoms

Initialize ...

Cu-setup:
  name: Copper
  id: f1c4d45d90492f1bbfdcb091e8418fdf
  Z: 29.0
  valence: 11
  core: 18
  charge: 0.0
  file: /groups/kemi/thorkong/miniconda3/envs/gpaw22/share/gpaw/Cu.PBE.gz
  compensation charges: gauss, rc=0.33, lmax=2
  cutoffs: 2.06(filt), 2.43(core),
  valence states:
                energy  radius
    4s(1.00)    -4.609   1.164
    4p(0.00)    -0.698   1.164
    3d(10.00)    -5.039   1.058
    *s          22.603   1.164
    *p          26.513   1.164
    *d          22.172   1.058

  LCAO basis set for Cu:
    Name: dzp
    File: /groups/kemi/thorkong/miniconda3/envs/gpaw22/share/gpaw/Cu.dzp.basis.gz
    Number of radial functions: 5
    Number of spherical harmonics: 15
      l=0, rc=8.9688 Bohr: 4s-sz confined orbital
      l=2, rc=5.1719 Bohr: 3d-sz confined orbital
      l=0, rc=5.3281 Bohr: 4s-dz split-valence wave
      l=2, rc=3.1406 Bohr: 3d-dz split-valence wave
      l=1, rc=8.9688 Bohr: p-type Gaussian polarization

Reference energy: -4322059.376747

Spin-paired calculation

Convergence criteria:
 Maximum [total energy] change in last 3 cyles: 0.0005 eV / electron
 Maximum integral of absolute [dens]ity change: 0.0001 electrons / valence electron
 Maximum integral of absolute [eigenst]ate change: 4e-08 eV^2 / valence electron
 Maximum number of scf [iter]ations: 333
 (Square brackets indicate name in SCF output, whereas a 'c' in
 the SCF output indicates the quantity has converged.)

Symmetries present (total): 1

  ( 1  0  0)
  ( 0  1  0)
  ( 0  0  1)

16 k-points: 4 x 4 x 1 Monkhorst-Pack grid
8 k-points in the irreducible part of the Brillouin zone
       k-points in crystal coordinates                weights
   0:     0.12500000   -0.37500000    0.00000000          2/16
   1:     0.12500000   -0.12500000    0.00000000          2/16
   2:     0.12500000    0.12500000    0.00000000          2/16
   3:     0.12500000    0.37500000    0.00000000          2/16
   4:     0.37500000   -0.37500000    0.00000000          2/16
   5:     0.37500000   -0.12500000    0.00000000          2/16
   6:     0.37500000    0.12500000    0.00000000          2/16
   7:     0.37500000    0.37500000    0.00000000          2/16

Wave functions: Plane wave expansion
  Cutoff energy: 600.000 eV
  Number of coefficients (min, max): 88905, 88994
  Pulay-stress correction: 0.000000 eV/Ang^3 (de/decut=0.000000)
  Using FFTW library
  ScaLapack parameters: grid=2x2, blocksize=64
  Wavefunction extrapolation:
    Improved wavefunction reuse through dual PAW basis

Occupation numbers: Fermi-Dirac: width=0.1000 eV

Eigensolver
   Davidson(niter=2)

Densities:
  Coarse grid: 60*42*196 grid
  Fine grid: 120*84*392 grid
  Total Charge: 0.000000

Density mixing:
  Method: separate
  Backend: pulay
  Linear mixing parameter: 0.05
  Mixing with 5 old densities
  Damping of long wave oscillations: 50

Hamiltonian:
  XC and Coulomb potentials evaluated on a 120*84*392 grid
  Using the BEEF-vdW Exchange-Correlation functional
  External potential:
    NoExternalPotential

XC parameters: BEEF-vdW with 2 nearest neighbor stencil

Total number of cores used: 32
Parallelization over k-points: 8
Domain decomposition: 1 x 1 x 4
                      2 x 2 x 8 (xc only)

Number of atoms: 96
Number of atomic orbitals: 1440
Number of bands in calculation: 638
Number of valence electrons: 1056
Bands to converge: occupied

... initialized

Initializing position-dependent things.

Density initialized from atomic densities
Creating initial wave functions:
  638 bands from LCAO basis set

 |    |  Cu    Cu     Cu    Cu  |
 |  Cu|    Cu    Cu     Cu      |
 |    |  Cu    Cu     Cu    Cu  |
 |CuCuCuCu CuCuCuCuCuCu CuCu    |
 |    |  Cu    Cu     Cu    Cu  |
 |Cu  CuCu   CuCu  CuCu   Cu    |
 |  Cu|  CuCu  CuCu   CuCu  Cu  |
 |Cu  | Cu     Cu    Cu         |
 |  CuCu CuCuCuCuCuCu CuCuCuCu  |
 |Cu  | Cu     Cu    Cu         |
 |  CuCu   CuCu  CuCu   CuCu    |
 |    |  Cu    Cu     Cu    Cu  |
 |CuCuCuCu CuCuCuCuCuCu CuCu    |
 |Cu Cu Cu  Cu Cu Cu Cu  Cu     |

Positions:
   0 Cu     2.894078    0.000000   10.052672    ( 0.0000,  0.0000,  0.0000)
   1 Cu     1.585526    1.850500   11.255893    ( 0.0000,  0.0000,  0.0000)
   2 Cu     4.202528    1.850500   11.255893    ( 0.0000,  0.0000,  0.0000)
   3 Cu     0.277075    0.000000   10.052672    ( 0.0000,  0.0000,  0.0000)
   4 Cu     0.277046    0.000000   12.617554    ( 0.0000,  0.0000,  0.0000)
   5 Cu     4.202500    1.850500   13.915219    ( 0.0000,  0.0000,  0.0000)
   6 Cu     1.585498    1.850500   13.915219    ( 0.0000,  0.0000,  0.0000)
   7 Cu     2.894049    0.000000   12.617554    ( 0.0000,  0.0000,  0.0000)
   8 Cu     2.894023    0.000000   15.235840    ( 0.0000,  0.0000,  0.0000)
   9 Cu     1.585481    1.850500   16.539378    ( 0.0000,  0.0000,  0.0000)
  10 Cu     4.202483    1.850500   16.539378    ( 0.0000,  0.0000,  0.0000)
  11 Cu     0.277021    0.000000   15.235840    ( 0.0000,  0.0000,  0.0000)
  12 Cu     0.277012    0.000000   17.854193    ( 0.0000,  0.0000,  0.0000)
  13 Cu     4.202492    1.850500   19.157800    ( 0.0000,  0.0000,  0.0000)
  14 Cu     1.585490    1.850500   19.157800    ( 0.0000,  0.0000,  0.0000)
  15 Cu     2.894014    0.000000   17.854193    ( 0.0000,  0.0000,  0.0000)
  16 Cu     2.894032    0.000000   20.478448    ( 0.0000,  0.0000,  0.0000)
  17 Cu     1.585513    1.850500   21.776066    ( 0.0000,  0.0000,  0.0000)
  18 Cu     4.202515    1.850500   21.776066    ( 0.0000,  0.0000,  0.0000)
  19 Cu     0.277029    0.000000   20.478448    ( 0.0000,  0.0000,  0.0000)
  20 Cu     0.277055    0.000000   23.137791    ( 0.0000,  0.0000,  0.0000)
  21 Cu     3.905300    1.817608    8.616632    ( 0.0000,  0.0000,  0.0000)
  22 Cu     1.288297    1.817608    8.616632    ( 0.0000,  0.0000,  0.0000)
  23 Cu     2.894058    0.000000   23.137791    ( 0.0000,  0.0000,  0.0000)
  24 Cu     2.894078    3.701000   10.052672    ( 0.0000,  0.0000,  0.0000)
  25 Cu     1.585526    5.551500   11.255893    ( 0.0000,  0.0000,  0.0000)
  26 Cu     4.202528    5.551500   11.255893    ( 0.0000,  0.0000,  0.0000)
  27 Cu     0.277075    3.701000   10.052672    ( 0.0000,  0.0000,  0.0000)
  28 Cu     0.277046    3.701000   12.617555    ( 0.0000,  0.0000,  0.0000)
  29 Cu     4.202500    5.551500   13.915219    ( 0.0000,  0.0000,  0.0000)
  30 Cu     1.585498    5.551500   13.915219    ( 0.0000,  0.0000,  0.0000)
  31 Cu     2.894049    3.701000   12.617555    ( 0.0000,  0.0000,  0.0000)
  32 Cu     2.894023    3.701000   15.235840    ( 0.0000,  0.0000,  0.0000)
  33 Cu     1.585481    5.551500   16.539378    ( 0.0000,  0.0000,  0.0000)
  34 Cu     4.202483    5.551500   16.539378    ( 0.0000,  0.0000,  0.0000)
  35 Cu     0.277021    3.701000   15.235840    ( 0.0000,  0.0000,  0.0000)
  36 Cu     0.277012    3.701000   17.854193    ( 0.0000,  0.0000,  0.0000)
  37 Cu     4.202492    5.551500   19.157800    ( 0.0000,  0.0000,  0.0000)
  38 Cu     1.585490    5.551500   19.157800    ( 0.0000,  0.0000,  0.0000)
  39 Cu     2.894014    3.701000   17.854193    ( 0.0000,  0.0000,  0.0000)
  40 Cu     2.894032    3.701000   20.478448    ( 0.0000,  0.0000,  0.0000)
  41 Cu     1.585513    5.551500   21.776066    ( 0.0000,  0.0000,  0.0000)
  42 Cu     4.202515    5.551500   21.776066    ( 0.0000,  0.0000,  0.0000)
  43 Cu     0.277029    3.701000   20.478448    ( 0.0000,  0.0000,  0.0000)
  44 Cu     0.277055    3.701000   23.137791    ( 0.0000,  0.0000,  0.0000)
  45 Cu     4.202529    5.551500   24.340566    ( 0.0000,  0.0000,  0.0000)
  46 Cu     1.585526    5.551500   24.340566    ( 0.0000,  0.0000,  0.0000)
  47 Cu     2.894058    3.701000   23.137791    ( 0.0000,  0.0000,  0.0000)
  48 Cu     8.128082    0.000000   10.052672    ( 0.0000,  0.0000,  0.0000)
  49 Cu     6.819531    1.850500   11.255893    ( 0.0000,  0.0000,  0.0000)
  50 Cu     9.436533    1.850500   11.255893    ( 0.0000,  0.0000,  0.0000)
  51 Cu     5.511080    0.000000   10.052672    ( 0.0000,  0.0000,  0.0000)
  52 Cu     5.511051    0.000000   12.617555    ( 0.0000,  0.0000,  0.0000)
  53 Cu     9.436505    1.850500   13.915219    ( 0.0000,  0.0000,  0.0000)
  54 Cu     6.819502    1.850500   13.915219    ( 0.0000,  0.0000,  0.0000)
  55 Cu     8.128053    0.000000   12.617555    ( 0.0000,  0.0000,  0.0000)
  56 Cu     8.128028    0.000000   15.235840    ( 0.0000,  0.0000,  0.0000)
  57 Cu     6.819486    1.850500   16.539378    ( 0.0000,  0.0000,  0.0000)
  58 Cu     9.436488    1.850500   16.539378    ( 0.0000,  0.0000,  0.0000)
  59 Cu     5.511026    0.000000   15.235840    ( 0.0000,  0.0000,  0.0000)
[...]
  81 Cu     6.819486    5.551500   16.539378    ( 0.0000,  0.0000,  0.0000)
  82 Cu     9.436488    5.551500   16.539378    ( 0.0000,  0.0000,  0.0000)
  83 Cu     5.511026    3.701000   15.235840    ( 0.0000,  0.0000,  0.0000)
  84 Cu     5.511016    3.701000   17.854193    ( 0.0000,  0.0000,  0.0000)
  85 Cu     9.436497    5.551500   19.157800    ( 0.0000,  0.0000,  0.0000)
  86 Cu     6.819495    5.551500   19.157800    ( 0.0000,  0.0000,  0.0000)
  87 Cu     8.128019    3.701000   17.854193    ( 0.0000,  0.0000,  0.0000)
  88 Cu     8.128036    3.701000   20.478448    ( 0.0000,  0.0000,  0.0000)
  89 Cu     6.819518    5.551500   21.776066    ( 0.0000,  0.0000,  0.0000)
  90 Cu     9.436520    5.551500   21.776066    ( 0.0000,  0.0000,  0.0000)
  91 Cu     5.511034    3.701000   20.478448    ( 0.0000,  0.0000,  0.0000)
  92 Cu     5.511060    3.701000   23.137791    ( 0.0000,  0.0000,  0.0000)
  93 Cu     9.436533    5.551500   24.340566    ( 0.0000,  0.0000,  0.0000)
  94 Cu     6.819531    5.551500   24.340565    ( 0.0000,  0.0000,  0.0000)
  95 Cu     8.128062    3.701000   23.137791    ( 0.0000,  0.0000,  0.0000)

Unit cell:
           periodic     x           y           z      points  spacing
  1. axis:    yes   10.468009    0.000000    0.000000    60     0.1745
  2. axis:    yes    0.000000    7.402000    0.000000    42     0.1762
  3. axis:    yes    0.000000    0.000000   34.393512   196     0.1755

  Lengths:  10.468009   7.402000  34.393512
  Angles:   90.000000  90.000000  90.000000

Effective grid spacing dv^(1/3) = 0.1754

     iter     time        total  log10-change:
                         energy  eigst   dens
iter:   1 20:30:20 -7318.209686
[...]
 40 Cu    0.00014   -0.01416    0.00801
 41 Cu    0.00021    0.00000    0.05821
 42 Cu    0.00022    0.00000    0.05821
 43 Cu    0.00014   -0.01416    0.00801
 44 Cu    0.00031   -0.18138   -0.17702
 45 Cu    0.00017    0.00013   -0.08072
 46 Cu    0.00017    0.00013   -0.08072
 47 Cu    0.00031   -0.18138   -0.17702
 48 Cu   -0.15732   -0.07979   -0.27179
 49 Cu    0.01607    0.00375    0.13216
 50 Cu    0.01607    0.00375    0.13216
 51 Cu   -0.15732   -0.07979   -0.27179
 52 Cu    0.00131   -0.01344   -0.00206
 53 Cu    0.00162   -0.00004   -0.03119
 54 Cu    0.00162   -0.00004   -0.03119
 55 Cu    0.00131   -0.01344   -0.00206
 56 Cu   -0.00010    0.00037   -0.03633
 57 Cu    0.00018    0.00010    0.02396
 58 Cu    0.00019    0.00010    0.02396
 59 Cu   -0.00010    0.00037   -0.03633
[...]
 81 Cu    0.00014    0.00007    0.00308
 82 Cu    0.00014    0.00007    0.00308
 83 Cu   -0.00007   -0.00038   -0.03619
 84 Cu    0.00017   -0.00024   -0.01268
 85 Cu    0.00029   -0.00010    0.06185
 86 Cu    0.00029   -0.00010    0.06184
 87 Cu    0.00017   -0.00024   -0.01268
 88 Cu    0.00014   -0.01416    0.00801
 89 Cu    0.00021    0.00000    0.05821
 90 Cu    0.00021    0.00000    0.05821
 91 Cu    0.00014   -0.01416    0.00801
 92 Cu    0.00031   -0.18138   -0.17702
 93 Cu    0.00017    0.00013   -0.08072
 94 Cu    0.00017    0.00013   -0.08072
 95 Cu    0.00031   -0.18138   -0.17702

System changes: positions

[...]

Density initialized from wave functions
 |    |  Cu    Cu     Cu    Cu  |
 |  Cu|    Cu    Cu     Cu      |
 |    |  Cu    Cu     Cu    Cu  |
 |CuCuCuCu CuCuCuCuCuCu CuCu    |
 |    |  Cu    Cu     Cu    Cu  |
 |Cu  CuCu   CuCu  CuCu   Cu    |
 |  Cu|  CuCu  CuCu   CuCu  Cu  |
 |Cu  | Cu     Cu    Cu         |
 |  CuCu CuCuCuCuCuCu CuCuCuCu  |
 |    |Cu    Cu     Cu    Cu    |
 |Cu  | Cu     Cu    Cu         |
 |  CuCu CuCuCuCuCuCu CuCuCuCu  |
 |    |Cu    Cu     Cu    Cu    |
 |  CuCu   CuCu  CuCu   CuCu    |
 |   Cu     Cu    Cu     Cu     |

[...]

Density initialized from wave functions
 |    |  Cu    Cu     Cu    Cu  |
 |  Cu|    Cu    Cu     Cu      |
 |    |  Cu    Cu     Cu    Cu  |
 |CuCuCuCu CuCuCuCuCuCu CuCu    |
 |    |  Cu    Cu     Cu    Cu  |
 |Cu  CuCu   CuCu  CuCu   Cu    |
 |  Cu|  CuCu  CuCu   CuCu  Cu  |
 |Cu  | Cu     Cu    Cu         |
 |  CuCu CuCuCuCuCuCu CuCuCuCu  |
 |    |Cu    Cu     Cu    Cu    |
 |Cu  | Cu     Cu    Cu         |
 |  CuCu CuCuCuCuCuCu CuCuCuCu  |
 |    |Cu    Cu     Cu    Cu    |
 |  CuCu   CuCu  CuCu   CuCu    |
 |    Cu    Cu     Cu    Cu     |

[...]

Density initialized from wave functions
 |    |  Cu    Cu     Cu    Cu  |
 |  Cu|    Cu    Cu     Cu      |
 |    |  Cu    Cu     Cu    Cu  |
 |CuCuCuCu CuCuCuCuCuCu CuCu    |
 |    |CuCu  CuCu   CuCu  CuCu  |
 |Cu  CuCu   CuCu  CuCu   Cu    |
 |  Cu|  CuCu  CuCu   CuCu  Cu  |
 |  CuCu CuCuCuCuCuCu CuCuCuCu  |
 |    |Cu    Cu     Cu    Cu    |
 |Cu  | Cu     Cu    Cu         |
 |  CuCu   CuCu  CuCu   CuCu    |
 |    |CuCu  CuCu   CuCu  CuCu  |
 |  CuCu   CuCu  CuCu   CuCu    |
 |    Cu    Cu     Cu    Cu     |

[...]

Density initialized from wave functions
 |    |  Cu    Cu     Cu    Cu  |
 |  Cu|    Cu    Cu     Cu      |
 |    |  Cu    Cu     Cu    Cu  |
 |Cu  CuCu   CuCu  CuCu   Cu    |
 |  Cu|CuCuCuCuCuCu CuCuCuCuCu  |
 |Cu  CuCu   CuCu  CuCu   Cu    |
 |  Cu|  CuCu  CuCu   CuCu  Cu  |
 |  CuCu CuCuCuCuCuCu CuCuCuCu  |
 |    |Cu    Cu     Cu    Cu    |
 |Cu  | Cu     Cu    Cu         |
 |  CuCu   CuCu  CuCu   CuCu    |
 |    Cu Cu  CuCu  Cu Cu  CuCu  |
 |  CuCu   CuCu  CuCu   CuCu    |
 |    Cu    Cu     Cu    Cu     |

[...]

Density initialized from wave functions
 |    |  Cu    Cu     Cu    Cu  |
 |  Cu|    Cu    Cu     Cu      |
 |    |  Cu    Cu     Cu    Cu  |
 |CuCuCuCu CuCuCuCuCuCu CuCu    |
 |    |CuCu  CuCu   CuCu  CuCu  |
 |Cu  CuCu   CuCu  CuCu   Cu    |
 |  Cu|  CuCu  CuCu   CuCu  Cu  |
 |  CuCu CuCuCuCuCuCu CuCuCuCu  |
 |    |Cu    Cu     Cu    Cu    |
 |Cu  | Cu     Cu    Cu         |
 |  CuCu   CuCu  CuCu   CuCu    |
 |    Cu Cu  CuCu  Cu Cu  CuCu  |
 |  CuCu   CuCu  CuCu   CuCu    |
 |    Cu    Cu     Cu    Cu     |

[...]

Density initialized from wave functions
 |    |  Cu    Cu     Cu    Cu  |
 |  Cu|    Cu    Cu     Cu      |
 |    |  Cu    Cu     Cu    Cu  |
 |CuCuCuCu CuCuCuCuCuCu CuCu    |
 |    |CuCu  CuCu   CuCu  CuCu  |
 |Cu  CuCu   CuCu  CuCu   Cu    |
 |  Cu|  CuCu  CuCu   CuCu  Cu  |
 |  CuCu CuCuCuCuCuCu CuCuCuCu  |
 |    |Cu    Cu     Cu    Cu    |
 |Cu  | Cu     Cu    Cu         |
 |  CuCu   CuCu  CuCu   CuCu    |
 |    Cu Cu  CuCu  Cu Cu  CuCu  |
 |  CuCu   CuCu  CuCu   CuCu    |
 |    Cu    Cu     Cu    Cu     |

[...]

Density initialized from wave functions
 |    |  Cu    Cu     Cu    Cu  |
 |  Cu|    Cu    Cu     Cu      |
 |    |  Cu    Cu     Cu    Cu  |
 |CuCuCuCu CuCuCuCuCuCu CuCu    |
 |    |CuCu  CuCu   CuCu  CuCu  |
 |Cu  CuCu   CuCu  CuCu   Cu    |
 |  Cu|  CuCu  CuCu   CuCu  Cu  |
 |  CuCu CuCuCuCuCuCu CuCuCuCu  |
 |    |Cu    Cu     Cu    Cu    |
 |Cu  | Cu     Cu    Cu         |
 |  CuCu   CuCu  CuCu   CuCu    |
 |    |CuCu  CuCu   CuCu  CuCu  |
 |  CuCu   CuCu  CuCu   CuCu    |
 |    Cu     Cu    Cu     Cu    |

[...]

Density initialized from wave functions
 |    |  Cu    Cu     Cu    Cu  |
 |  Cu|    Cu    Cu     Cu      |
 |    |  Cu    Cu     Cu    Cu  |
 |Cu  CuCu   CuCu  CuCu   Cu    |
 |  Cu|CuCuCuCuCuCu CuCuCuCuCu  |
 |Cu  CuCu   CuCu  CuCu   Cu    |
 |  Cu|CuCuCuCuCuCu CuCuCuCuCu  |
 |  CuCu CuCuCuCuCuCu CuCuCuCu  |
 |    |Cu    Cu     Cu    Cu    |
 |  CuCu   CuCu  CuCu   CuCu    |
 |    |CuCu  CuCu   CuCu  CuCu  |
 |  CuCu   CuCu  CuCu   CuCu    |
 |    Cu     Cu    Cu     Cu    |

[...]

System changes: positions

Initializing position-dependent things.

Density initialized from wave functions
 |    |  Cu    Cu     Cu    Cu  |
 |  Cu|    Cu    Cu     Cu      |
 |    |  Cu    Cu     Cu    Cu  |
 |Cu  CuCu   CuCu  CuCu   Cu    |
 |  Cu|CuCuCuCuCuCu CuCuCuCuCu  |
 |Cu  CuCu   CuCu  CuCu   Cu    |
 |  Cu|CuCuCuCuCuCu CuCuCuCuCu  |
 |  CuCu CuCuCuCuCuCu CuCuCuCu  |
 |    |Cu    Cu     Cu    Cu    |
 |  CuCu   CuCu  CuCu   CuCu    |
 |    |CuCu  CuCu   CuCu  CuCu  |
 |  CuCu   CuCu  CuCu   CuCu    |
 |    Cu     Cu    Cu     Cu    |

Positions:
   0 Cu     2.845168   -0.037727    9.987255    ( 0.0000,  0.0000,  0.0000)
   1 Cu     1.545496    1.847235   11.319159    ( 0.0000,  0.0000,  0.0000)
   2 Cu     4.162499    1.847235   11.319159    ( 0.0000,  0.0000,  0.0000)
   3 Cu     0.228165   -0.037726    9.987255    ( 0.0000,  0.0000,  0.0000)
   4 Cu     0.252740   -0.018170   12.607116    ( 0.0000,  0.0000,  0.0000)
   5 Cu     4.196939    1.847953   13.910547    ( 0.0000,  0.0000,  0.0000)
   6 Cu     1.579936    1.847953   13.910547    ( 0.0000,  0.0000,  0.0000)
   7 Cu     2.869742   -0.018170   12.607116    ( 0.0000,  0.0000,  0.0000)
   8 Cu     2.894614   -0.000117   15.228205    ( 0.0000,  0.0000,  0.0000)
   9 Cu     1.586312    1.849547   16.540848    ( 0.0000,  0.0000,  0.0000)
  10 Cu     4.203314    1.849547   16.540848    ( 0.0000,  0.0000,  0.0000)
  11 Cu     0.277611   -0.000117   15.228205    ( 0.0000,  0.0000,  0.0000)
  12 Cu     0.277507   -0.002032   17.852267    ( 0.0000,  0.0000,  0.0000)
  13 Cu     4.202817    1.850398   19.166846    ( 0.0000,  0.0000,  0.0000)
  14 Cu     1.585814    1.850398   19.166846    ( 0.0000,  0.0000,  0.0000)
  15 Cu     2.894509   -0.002032   17.852267    ( 0.0000,  0.0000,  0.0000)
  16 Cu     2.894393    0.015527   20.476483    ( 0.0000,  0.0000,  0.0000)
  17 Cu     1.585954    1.850526   21.833102    ( 0.0000,  0.0000,  0.0000)
  18 Cu     4.202956    1.850526   21.833102    ( 0.0000,  0.0000,  0.0000)
  19 Cu     0.277390    0.015527   20.476483    ( 0.0000,  0.0000,  0.0000)
  20 Cu     0.277513    0.035908   23.098340    ( 0.0000,  0.0000,  0.0000)
  21 Cu     4.154233    1.847439    8.810400    ( 0.0000,  0.0000,  0.0000)
  22 Cu     1.537231    1.847439    8.810400    ( 0.0000,  0.0000,  0.0000)
  23 Cu     2.894515    0.035908   23.098340    ( 0.0000,  0.0000,  0.0000)
  24 Cu     2.842752    3.732287    9.988757    ( 0.0000,  0.0000,  0.0000)
  25 Cu     1.537192    5.548799   11.251233    ( 0.0000,  0.0000,  0.0000)
  26 Cu     4.154195    5.548799   11.251233    ( 0.0000,  0.0000,  0.0000)
  27 Cu     0.225750    3.732287    9.988757    ( 0.0000,  0.0000,  0.0000)
  28 Cu     0.252767    3.713800   12.607378    ( 0.0000,  0.0000,  0.0000)
  29 Cu     4.196276    5.549078   13.915120    ( 0.0000,  0.0000,  0.0000)
  30 Cu     1.579274    5.549078   13.915120    ( 0.0000,  0.0000,  0.0000)
  31 Cu     2.869769    3.713800   12.607378    ( 0.0000,  0.0000,  0.0000)
  32 Cu     2.894641    3.697483   15.228317    ( 0.0000,  0.0000,  0.0000)
  33 Cu     1.586527    5.550605   16.539029    ( 0.0000,  0.0000,  0.0000)
  34 Cu     4.203529    5.550605   16.539029    ( 0.0000,  0.0000,  0.0000)
  35 Cu     0.277639    3.697483   15.228317    ( 0.0000,  0.0000,  0.0000)
  36 Cu     0.277509    3.702370   17.852253    ( 0.0000,  0.0000,  0.0000)
  37 Cu     4.202809    5.551416   19.172124    ( 0.0000,  0.0000,  0.0000)
  38 Cu     1.585806    5.551416   19.172124    ( 0.0000,  0.0000,  0.0000)
  39 Cu     2.894511    3.702370   17.852252    ( 0.0000,  0.0000,  0.0000)
  40 Cu     2.894392    3.685455   20.476504    ( 0.0000,  0.0000,  0.0000)
  41 Cu     1.585984    5.551509   21.767371    ( 0.0000,  0.0000,  0.0000)
  42 Cu     4.202986    5.551509   21.767371    ( 0.0000,  0.0000,  0.0000)
  43 Cu     0.277390    3.685455   20.476504    ( 0.0000,  0.0000,  0.0000)
  44 Cu     0.277514    3.665118   23.098338    ( 0.0000,  0.0000,  0.0000)
  45 Cu     4.203056    5.551504   24.274918    ( 0.0000,  0.0000,  0.0000)
  46 Cu     1.586054    5.551504   24.274918    ( 0.0000,  0.0000,  0.0000)
  47 Cu     2.894516    3.665118   23.098338    ( 0.0000,  0.0000,  0.0000)
  48 Cu     8.079172   -0.037726    9.987255    ( 0.0000,  0.0000,  0.0000)
  49 Cu     6.779501    1.847235   11.319159    ( 0.0000,  0.0000,  0.0000)
  50 Cu     9.396503    1.847235   11.319159    ( 0.0000,  0.0000,  0.0000)
  51 Cu     5.462170   -0.037726    9.987255    ( 0.0000,  0.0000,  0.0000)
  52 Cu     5.486744   -0.018170   12.607116    ( 0.0000,  0.0000,  0.0000)
  53 Cu     9.430943    1.847953   13.910547    ( 0.0000,  0.0000,  0.0000)
  54 Cu     6.813941    1.847953   13.910547    ( 0.0000,  0.0000,  0.0000)
  55 Cu     8.103747   -0.018170   12.607116    ( 0.0000,  0.0000,  0.0000)
  56 Cu     8.128618   -0.000117   15.228205    ( 0.0000,  0.0000,  0.0000)
  57 Cu     6.820316    1.849547   16.540848    ( 0.0000,  0.0000,  0.0000)
  58 Cu     9.437318    1.849547   16.540848    ( 0.0000,  0.0000,  0.0000)
  59 Cu     5.511616   -0.000117   15.228205    ( 0.0000,  0.0000,  0.0000)
[...]
  81 Cu     6.820531    5.550605   16.539029    ( 0.0000,  0.0000,  0.0000)
  82 Cu     9.437533    5.550605   16.539029    ( 0.0000,  0.0000,  0.0000)
  83 Cu     5.511644    3.697483   15.228317    ( 0.0000,  0.0000,  0.0000)
  84 Cu     5.511514    3.702370   17.852252    ( 0.0000,  0.0000,  0.0000)
  85 Cu     9.436813    5.551416   19.172124    ( 0.0000,  0.0000,  0.0000)
  86 Cu     6.819811    5.551416   19.172124    ( 0.0000,  0.0000,  0.0000)
  87 Cu     8.128516    3.702370   17.852252    ( 0.0000,  0.0000,  0.0000)
  88 Cu     8.128396    3.685455   20.476504    ( 0.0000,  0.0000,  0.0000)
  89 Cu     6.819988    5.551509   21.767371    ( 0.0000,  0.0000,  0.0000)
  90 Cu     9.436990    5.551509   21.767371    ( 0.0000,  0.0000,  0.0000)
  91 Cu     5.511394    3.685455   20.476504    ( 0.0000,  0.0000,  0.0000)
  92 Cu     5.511518    3.665118   23.098338    ( 0.0000,  0.0000,  0.0000)
  93 Cu     9.437061    5.551503   24.274918    ( 0.0000,  0.0000,  0.0000)
  94 Cu     6.820059    5.551504   24.274918    ( 0.0000,  0.0000,  0.0000)
  95 Cu     8.128520    3.665118   23.098338    ( 0.0000,  0.0000,  0.0000)

Unit cell:
           periodic     x           y           z      points  spacing
  1. axis:    yes   10.468009    0.000000    0.000000    60     0.1745
  2. axis:    yes    0.000000    7.402000    0.000000    42     0.1762
  3. axis:    yes    0.000000    0.000000   34.393512   196     0.1755

  Lengths:  10.468009   7.402000  34.393512
  Angles:   90.000000  90.000000  90.000000

Effective grid spacing dv^(1/3) = 0.1754

     iter     time        total  log10-change:
                         energy  eigst   dens
iter:   1 04:26:16 -7268.112559  -3.56
iter:   2 04:29:29 -7268.018753  -3.54  -2.76
iter:   3 04:32:22 -7267.970707c -4.57  -3.01
iter:   4 04:35:04 -7267.965476c -5.50  -3.41
iter:   5 04:37:50 -7267.964023c -5.81  -3.66
iter:   6 04:40:33 -7267.963740c -5.83  -3.93
iter:   7 04:43:14 -7267.963693c -6.80  -4.14c
iter:   8 04:46:02 -7267.963659c -6.39  -4.20c
iter:   9 04:48:56 -7267.963714c -6.90  -4.37c
iter:  10 04:51:38 -7267.963678c -6.71  -4.59c
iter:  11 04:54:21 -7267.963712c -7.19  -4.58c
iter:  12 04:56:57 -7267.963674c -7.71c -4.56c

Converged after 12 iterations.

Dipole moment: (-92.615232, 0.895007, -0.000949) |e|*Ang

Energy contributions relative to reference atoms: (reference = -4322059.376747)

Kinetic:       +648.427030
Potential:     -733.283062
External:        +0.000000
XC:            -7181.307677
Entropy (-ST):   -1.019779
Local:           -1.290075
Free energy:   -7268.473563
Extrapolated:  -7267.963674

Showing only first 2 kpts
 Kpt  Band  Eigenvalues  Occupancy
  0   526      0.79736    0.56911
  0   527      0.90436    0.24009
  0   528      0.91757    0.21355
  0   529      0.98781    0.11182

  1   526      0.46979    1.82645
  1   527      0.59024    1.51873
  1   528      0.61151    1.43677
  1   529      0.75505    0.75557

Fermi level: 0.70516

No gap

Forces in eV/Ang:
  0 Cu    0.00248   -0.00258    0.00141
  1 Cu    0.00836    0.00035    0.00098
  2 Cu    0.00836    0.00035    0.00098
  3 Cu    0.00248   -0.00258    0.00141
  4 Cu   -0.00115    0.00005   -0.00129
  5 Cu   -0.01304    0.00175   -0.00158
  6 Cu   -0.01304    0.00175   -0.00158
  7 Cu   -0.00115    0.00005   -0.00129
  8 Cu   -0.00605   -0.00301    0.00304
  9 Cu    0.00002   -0.00092    0.01087
 10 Cu    0.00002   -0.00092    0.01087
 11 Cu   -0.00605   -0.00300    0.00304
 12 Cu    0.00071    0.00017    0.00408
 13 Cu    0.00036   -0.00028   -0.00407
 14 Cu    0.00036   -0.00028   -0.00407
 15 Cu    0.00071    0.00017    0.00408
 16 Cu    0.00016   -0.00400    0.00059
 17 Cu    0.00017   -0.00019   -0.00591
 18 Cu    0.00017   -0.00019   -0.00591
 19 Cu    0.00016   -0.00400    0.00059
 20 Cu    0.00022   -0.00077   -0.00369
 21 Cu   -0.00509    0.00009    0.00753
 22 Cu   -0.00509    0.00009    0.00753
 23 Cu    0.00022   -0.00077   -0.00369
 24 Cu    0.00801    0.00245   -0.00151
 25 Cu    0.02717    0.00066    0.00249
 26 Cu    0.02717    0.00066    0.00249
 27 Cu    0.00801    0.00245   -0.00151
 28 Cu   -0.00090   -0.00033   -0.00124
 29 Cu   -0.01497    0.00132    0.00361
 30 Cu   -0.01497    0.00132    0.00361
 31 Cu   -0.00090   -0.00033   -0.00124
 32 Cu   -0.00608    0.00449    0.00242
 33 Cu   -0.00029   -0.00080    0.00341
 34 Cu   -0.00029   -0.00080    0.00341
 35 Cu   -0.00608    0.00449    0.00242
 36 Cu    0.00070   -0.00221    0.00445
 37 Cu    0.00042   -0.00063    0.00279
 38 Cu    0.00042   -0.00063    0.00279
 39 Cu    0.00070   -0.00221    0.00445
 40 Cu    0.00016    0.00359    0.00025
 41 Cu    0.00012   -0.00000   -0.01216
 42 Cu    0.00012   -0.00000   -0.01216
 43 Cu    0.00016    0.00359    0.00025
 44 Cu    0.00023    0.00080   -0.00356
 45 Cu    0.00013    0.00001   -0.00287
 46 Cu    0.00013    0.00001   -0.00287
 47 Cu    0.00023    0.00080   -0.00356
 48 Cu    0.00248   -0.00258    0.00141
 49 Cu    0.00836    0.00035    0.00098
 50 Cu    0.00836    0.00035    0.00098
 51 Cu    0.00248   -0.00258    0.00141
 52 Cu   -0.00115    0.00005   -0.00129
 53 Cu   -0.01304    0.00175   -0.00158
 54 Cu   -0.01304    0.00175   -0.00158
 55 Cu   -0.00115    0.00005   -0.00129
 56 Cu   -0.00605   -0.00300    0.00304
 57 Cu    0.00002   -0.00092    0.01087
 58 Cu    0.00002   -0.00092    0.01087
 59 Cu   -0.00605   -0.00300    0.00304
[...]
 81 Cu   -0.00029   -0.00080    0.00341
 82 Cu   -0.00029   -0.00080    0.00341
 83 Cu   -0.00608    0.00449    0.00242
 84 Cu    0.00070   -0.00221    0.00445
 85 Cu    0.00042   -0.00063    0.00279
 86 Cu    0.00042   -0.00063    0.00279
 87 Cu    0.00070   -0.00221    0.00445
 88 Cu    0.00016    0.00359    0.00025
 89 Cu    0.00012   -0.00000   -0.01216
 90 Cu    0.00012   -0.00000   -0.01216
 91 Cu    0.00016    0.00359    0.00025
 92 Cu    0.00023    0.00080   -0.00356
 93 Cu    0.00013    0.00001   -0.00287
 94 Cu    0.00013    0.00001   -0.00287
 95 Cu    0.00023    0.00080   -0.00356