User:   thorkong@node048.cluster
Date:   Mon Oct 17 14:30:18 2022
Arch:   x86_64
Pid:    39479
Python: 3.10.5
gpaw:   /groups/kemi/thorkong/miniconda3/envs/gpaw22/lib/python3.10/site-packages/gpaw
_gpaw:  /groups/kemi/thorkong/miniconda3/envs/gpaw22/lib/python3.10/site-packages/
        _gpaw.cpython-310-x86_64-linux-gnu.so
ase:    /groups/kemi/thorkong/miniconda3/envs/gpaw22/lib/python3.10/site-packages/ase (version 3.22.1)
numpy:  /groups/kemi/thorkong/miniconda3/envs/gpaw22/lib/python3.10/site-packages/numpy (version 1.23.0)
scipy:  /groups/kemi/thorkong/miniconda3/envs/gpaw22/lib/python3.10/site-packages/scipy (version 1.8.1)
units:  Angstrom and eV
cores: 32
OpenMP: True
OMP_NUM_THREADS: 1

Input parameters:
  basis: dzp
  kpts: [4 4 1]
  mode: {ecut: 600.0,
         name: pw}
  xc: BEEF-vdW

System changes: positions, numbers, cell, pbc, initial_charges, initial_magmoms

Initialize ...

Cu-setup:
  name: Copper
  id: f1c4d45d90492f1bbfdcb091e8418fdf
  Z: 29.0
  valence: 11
  core: 18
  charge: 0.0
  file: /groups/kemi/thorkong/miniconda3/envs/gpaw22/share/gpaw/Cu.PBE.gz
  compensation charges: gauss, rc=0.33, lmax=2
  cutoffs: 2.06(filt), 2.43(core),
  valence states:
                energy  radius
    4s(1.00)    -4.609   1.164
    4p(0.00)    -0.698   1.164
    3d(10.00)    -5.039   1.058
    *s          22.603   1.164
    *p          26.513   1.164
    *d          22.172   1.058

  LCAO basis set for Cu:
    Name: dzp
    File: /groups/kemi/thorkong/miniconda3/envs/gpaw22/share/gpaw/Cu.dzp.basis.gz
    Number of radial functions: 5
    Number of spherical harmonics: 15
      l=0, rc=8.9688 Bohr: 4s-sz confined orbital
      l=2, rc=5.1719 Bohr: 3d-sz confined orbital
      l=0, rc=5.3281 Bohr: 4s-dz split-valence wave
      l=2, rc=3.1406 Bohr: 3d-dz split-valence wave
      l=1, rc=8.9688 Bohr: p-type Gaussian polarization

Cl-setup:
  name: Chlorine
  id: 726897f06f34e53cf8e33b5885a02604
  Z: 17.0
  valence: 7
  core: 10
  charge: 0.0
  file: /groups/kemi/thorkong/miniconda3/envs/gpaw22/share/gpaw/Cl.PBE.gz
  compensation charges: gauss, rc=0.25, lmax=2
  cutoffs: 1.40(filt), 1.49(core),
  valence states:
                energy  radius
    3s(2.00)   -20.689   0.794
    3p(5.00)    -8.594   0.794
    *s           6.523   0.794
    *p          18.617   0.794
    *d           0.000   0.794

  LCAO basis set for Cl:
    Name: dzp
    File: /groups/kemi/thorkong/miniconda3/envs/gpaw22/share/gpaw/Cl.dzp.basis.gz
    Number of radial functions: 5
    Number of spherical harmonics: 13
      l=0, rc=5.1719 Bohr: 3s-sz confined orbital
      l=1, rc=6.2656 Bohr: 3p-sz confined orbital
      l=0, rc=2.8281 Bohr: 3s-dz split-valence wave
      l=1, rc=3.5156 Bohr: 3p-dz split-valence wave
      l=2, rc=6.2656 Bohr: d-type Gaussian polarization

Reference energy: -2657147.488543

Spin-paired calculation

Convergence criteria:
 Maximum [total energy] change in last 3 cyles: 0.0005 eV / electron
 Maximum integral of absolute [dens]ity change: 0.0001 electrons / valence electron
 Maximum integral of absolute [eigenst]ate change: 4e-08 eV^2 / valence electron
 Maximum number of scf [iter]ations: 333
 (Square brackets indicate name in SCF output, whereas a 'c' in
 the SCF output indicates the quantity has converged.)

Symmetries present (total): 1

  ( 1  0  0)
  ( 0  1  0)
  ( 0  0  1)

16 k-points: 4 x 4 x 1 Monkhorst-Pack grid
8 k-points in the irreducible part of the Brillouin zone
       k-points in crystal coordinates                weights
   0:     0.12500000   -0.37500000    0.00000000          2/16
   1:     0.12500000   -0.12500000    0.00000000          2/16
   2:     0.12500000    0.12500000    0.00000000          2/16
   3:     0.12500000    0.37500000    0.00000000          2/16
   4:     0.37500000   -0.37500000    0.00000000          2/16
   5:     0.37500000   -0.12500000    0.00000000          2/16
   6:     0.37500000    0.12500000    0.00000000          2/16
   7:     0.37500000    0.37500000    0.00000000          2/16

Wave functions: Plane wave expansion
  Cutoff energy: 600.000 eV
  Number of coefficients (min, max): 54614, 54705
  Pulay-stress correction: 0.000000 eV/Ang^3 (de/decut=0.000000)
  Using FFTW library
  ScaLapack parameters: grid=2x2, blocksize=64
  Wavefunction extrapolation:
    Improved wavefunction reuse through dual PAW basis

Occupation numbers: Fermi-Dirac: width=0.1000 eV

Eigensolver
   Davidson(niter=2)

Densities:
  Coarse grid: 45*45*175 grid
  Fine grid: 90*90*350 grid
  Total Charge: 0.000000

Density mixing:
  Method: separate
  Backend: pulay
  Linear mixing parameter: 0.05
  Mixing with 5 old densities
  Damping of long wave oscillations: 50

Hamiltonian:
  XC and Coulomb potentials evaluated on a 90*90*350 grid
  Using the BEEF-vdW Exchange-Correlation functional
  External potential:
    NoExternalPotential

XC parameters: BEEF-vdW with 2 nearest neighbor stencil

Total number of cores used: 32
Parallelization over k-points: 8
Domain decomposition: 1 x 1 x 4
                      2 x 2 x 8 (xc only)

Number of atoms: 72
Number of atomic orbitals: 1044
Number of bands in calculation: 436
Number of valence electrons: 720
Bands to converge: occupied

... initialized

Initializing position-dependent things.

Density initialized from atomic densities
Creating initial wave functions:
  436 bands from LCAO basis set

                     Cl     Cl     Cl

                 Cl    Cl     Cl
            Cl    Cl    CCl   Cu     Cu
                   Cu     Cu    Cu
               Cu    Cu     Cu
                    Cu     Cu    Cu
                Cu    Cu    Cu
           Cu    Cu     Cu
                Cu     Cu    Cu
            Cu    Cu     Cu
       Cu     Cu        Cu    Cu     Cu
                   CCu    Cu    Cu
               Cu    Cu     Cu
                    Cu     Cu    Cu
                Cu    Cu    Cu
           Cu    Cu     Cu
                Cu     Cu    Cu
            Cu    Cu     Cu
       Cu     Cu   CCu   Cl     Cl
              Cl     Cl     Cl
               Cl
         Cl            Cl

Positions:
   0 Cu     2.884162   -0.011729   10.033678    ( 0.0000,  0.0000,  0.0000)
   1 Cu     4.175487    2.207390    9.968025    ( 0.0000,  0.0000,  0.0000)
   2 Cu     0.268779    0.005327   10.035957    ( 0.0000,  0.0000,  0.0000)
   3 Cu     1.563079    2.250160   10.040939    ( 0.0000,  0.0000,  0.0000)
   4 Cu     2.905835    3.013667   12.132731    ( 0.0000,  0.0000,  0.0000)
   5 Cu     1.587256    0.751197   12.155983    ( 0.0000,  0.0000,  0.0000)
   6 Cu     5.501600    3.021336   12.124235    ( 0.0000,  0.0000,  0.0000)
   7 Cu     4.203724    0.772150   12.120007    ( 0.0000,  0.0000,  0.0000)
   8 Cu     5.509809    1.511263   14.273560    ( 0.0000,  0.0000,  0.0000)
   9 Cu     6.817749    3.779201   14.272965    ( 0.0000,  0.0000,  0.0000)
  10 Cu     2.895657    1.507106   14.282845    ( 0.0000,  0.0000,  0.0000)
  11 Cu     4.204745    3.779097   14.275593    ( 0.0000,  0.0000,  0.0000)
  12 Cu     2.898323   -0.006205   16.439255    ( 0.0000,  0.0000,  0.0000)
  13 Cu     4.202828    2.263486   16.411249    ( 0.0000,  0.0000,  0.0000)
  14 Cu     0.271173   -0.001683   16.415015    ( 0.0000,  0.0000,  0.0000)
  15 Cu     1.580207    2.267720   16.418056    ( 0.0000,  0.0000,  0.0000)
  16 Cu     2.898773    3.019517   18.534881    ( 0.0000,  0.0000,  0.0000)
  17 Cu     1.574509    0.759578   18.535562    ( 0.0000,  0.0000,  0.0000)
  18 Cu     5.517461    3.017381   18.557838    ( 0.0000,  0.0000,  0.0000)
  19 Cu     4.218777    0.769327   18.565915    ( 0.0000,  0.0000,  0.0000)
  20 Cu     5.482458    1.472743   20.721328    ( 0.0000,  0.0000,  0.0000)
  21 Cu     6.840691    3.826186   20.718062    ( 0.0000,  0.0000,  0.0000)
  22 Cu     2.872766    1.512688   20.651496    ( 0.0000,  0.0000,  0.0000)
  23 Cu     4.179191    3.794081   20.647081    ( 0.0000,  0.0000,  0.0000)
  24 Cu     5.533098    4.559222    9.954112    ( 0.0000,  0.0000,  0.0000)
  25 Cu     2.867968    4.534051   10.029210    ( 0.0000,  0.0000,  0.0000)
  26 Cu     4.213127    5.276205   12.126541    ( 0.0000,  0.0000,  0.0000)
  27 Cu     6.799507    5.268601   12.115394    ( 0.0000,  0.0000,  0.0000)
  28 Cu     8.121886    6.047639   14.244202    ( 0.0000,  0.0000,  0.0000)
  29 Cu     5.516666    6.046671   14.278211    ( 0.0000,  0.0000,  0.0000)
  30 Cu     5.511110    4.531825   16.410270    ( 0.0000,  0.0000,  0.0000)
  31 Cu     2.888634    4.532926   16.406558    ( 0.0000,  0.0000,  0.0000)
  32 Cu     4.204789    5.283723   18.534523    ( 0.0000,  0.0000,  0.0000)
  33 Cu     6.814487    5.265823   18.565627    ( 0.0000,  0.0000,  0.0000)
  34 Cu     8.131354    6.045561   20.650058    ( 0.0000,  0.0000,  0.0000)
  35 Cu     5.501317    6.065983   20.648502    ( 0.0000,  0.0000,  0.0000)
  36 Cu     5.515639   -0.030915   10.037620    ( 0.0000,  0.0000,  0.0000)
  37 Cu     6.838300    2.241957   10.038361    ( 0.0000,  0.0000,  0.0000)
  38 Cu     8.121401    3.021170   12.150082    ( 0.0000,  0.0000,  0.0000)
  39 Cu     6.815400    0.755845   12.149679    ( 0.0000,  0.0000,  0.0000)
  40 Cu     8.132578    1.510559   14.278234    ( 0.0000,  0.0000,  0.0000)
  41 Cu     9.440817    3.775125   14.268637    ( 0.0000,  0.0000,  0.0000)
  42 Cu     5.504098   -0.004613   16.403245    ( 0.0000,  0.0000,  0.0000)
  43 Cu     6.816730    2.264183   16.407976    ( 0.0000,  0.0000,  0.0000)
  44 Cu     8.113114    3.026556   18.553628    ( 0.0000,  0.0000,  0.0000)
  45 Cu     6.806143    0.763216   18.553497    ( 0.0000,  0.0000,  0.0000)
  46 Cu     8.148557    1.500971   20.654047    ( 0.0000,  0.0000,  0.0000)
  47 Cu     9.453486    3.785452   20.645604    ( 0.0000,  0.0000,  0.0000)
  48 Cu     8.143342    4.522704   10.030314    ( 0.0000,  0.0000,  0.0000)
  49 Cu     9.444142    5.279553   12.148158    ( 0.0000,  0.0000,  0.0000)
  50 Cu    10.750397    6.043904   14.266863    ( 0.0000,  0.0000,  0.0000)
  51 Cu     8.125450    4.536072   16.403731    ( 0.0000,  0.0000,  0.0000)
  52 Cu     9.432612    5.289470   18.528114    ( 0.0000,  0.0000,  0.0000)
  53 Cu    10.748665    6.030225   20.646267    ( 0.0000,  0.0000,  0.0000)
  54 Cl     6.147134    2.664301   22.667231    ( 0.0000,  0.0000,  0.0000)
  55 Cl     4.853098    3.366848    8.014863    ( 0.0000,  0.0000,  0.0000)
  56 Cl    10.101076    4.907838   23.055936    ( 0.0000,  0.0000,  0.0000)
  57 Cl     0.915929    1.127744    7.628448    ( 0.0000,  0.0000,  0.0000)
  58 Cl     8.857645    5.743262    7.623330    ( 0.0000,  0.0000,  0.0000)
  59 Cl     2.077612    0.292715   23.096412    ( 0.0000,  0.0000,  0.0000)
  60 Cl     4.840254    4.930032   23.057792    ( 0.0000,  0.0000,  0.0000)
  61 Cl     6.176970    1.105521    7.627990    ( 0.0000,  0.0000,  0.0000)
  62 Cl     3.525825    5.890548    7.624209    ( 0.0000,  0.0000,  0.0000)
  63 Cl     7.377612    0.192715   23.096412    ( 0.0000,  0.0000,  0.0000)
  64 Cl     3.535671    2.617828   22.668468    ( 0.0000,  0.0000,  0.0000)
  65 Cl     7.796854    2.949642    7.999351    ( 0.0000,  0.0000,  0.0000)
  66 Cl     3.285427    1.026889    7.992637    ( 0.0000,  0.0000,  0.0000)
[...]
iter:   1 19:31:57 -4738.223348  -2.52
iter:   2 19:32:46 -4738.077626  -3.28  -2.51
iter:   3 19:33:34 -4738.049244c -3.85  -2.70
iter:   4 19:34:22 -4737.989828c -4.32  -2.72
iter:   5 19:35:12 -4737.975354c -4.06  -2.98
iter:   6 19:36:03 -4737.970051c -4.63  -3.22
iter:   7 19:36:58 -4737.970973c -5.05  -3.40
iter:   8 19:37:47 -4737.968608c -4.99  -3.47
iter:   9 19:38:55 -4737.968669c -5.99  -3.80
iter:  10 19:39:56 -4737.968385c -6.01  -3.80
iter:  11 19:40:48 -4737.968522c -6.36  -4.01c
iter:  12 19:41:44 -4737.968342c -6.29  -3.97
iter:  13 19:42:33 -4737.968264c -7.02  -4.27c
iter:  14 19:43:23 -4737.968221c -6.92  -4.42c
iter:  15 19:44:12 -4737.968222c -7.96c -4.58c

[...]

                   Cl    CuCl   Cu    Cu
                     Cu    Cu     Cu
                      Cu
                Cu    Cu    CCu    Cu
                 Cu    Cu     Cu

[...]

               Cl               Cl
       Cl           Cl   Cl

[...]

                   Cl   ClCl    Cl
                       Cl
                                  Cl

[...]

                                Cl
                          Cl
                   Cl   Cl      Cl
                       Cl
                                  Cl

[...]

                   Cl    CuCl  Cu     Cu

                    Cu     Cu    Cu
                Cu   CCu    CCu   Cu

[...]

                   Cl    Cu Cl  Cu    Cu
                     Cu    Cu     Cu
                      Cu
                Cu    Cu    CCu    Cu
                 Cu    Cu     Cu

[...]

         Cu    Cu    CCu   Cu     Cu
                Cu     Cu    Cu
                      Cu    Cu     Cu
                 Cu     Cu    Cu

[...]

                        Cl
                                   Cl
                   Cl       Cl        Cu
                         Cu     Cu
                     Cu    Cu     Cu
                Cu     Cu
                      Cu    CCu    Cu
                 Cu     Cu    Cu

             Cu   CCu    Cu    Cu
             Cu     Cu    Cu    Cu    Cu

         Cu    Cu    CCu   Cu     Cu
                Cu     Cu    Cu
                      Cu    Cu     Cu
                 Cu     Cu    Cu
                   Cu
             Cu   Cu     Cu    Cu
             Cu     Cu    Cu
                     Cl
         Cu    Cu     Cu      Cl

[...]

     iter     time        total  log10-change:
                         energy  eigst   dens
iter:   1 21:51:09 -4738.385171  -1.86
iter:   2 21:51:57 -4738.230866  -3.04  -2.38
iter:   3 21:52:45 -4738.449104c -3.33  -2.51
iter:   4 21:53:33 -4738.121996c -3.19  -2.35
iter:   5 21:54:21 -4738.000170  -3.81  -2.59
iter:   6 21:55:10 -4737.994494c -3.97  -2.93
iter:   7 21:55:58 -4737.988389c -4.52  -3.05
iter:   8 21:56:47 -4737.980284c -4.56  -3.25
iter:   9 21:57:35 -4737.980061c -5.69  -3.51
iter:  10 21:58:25 -4737.982801c -5.00  -3.55
iter:  11 21:59:12 -4737.980095c -5.27  -3.47
iter:  12 22:00:00 -4737.979500c -6.23  -3.90
iter:  13 22:00:53 -4737.979286c -6.32  -4.05c
iter:  14 22:01:41 -4737.979286c -6.11  -4.17c
iter:  15 22:02:29 -4737.979227c -6.93  -4.21c
iter:  16 22:03:17 -4737.979211c -7.29  -4.38c
iter:  17 22:04:05 -4737.979213c -7.12  -4.55c
iter:  18 22:05:09 -4737.979215c -7.68c -4.70c

[...]

     iter     time        total  log10-change:
                         energy  eigst   dens
iter:   1 22:36:05 -4737.979902  -5.83
iter:   2 22:46:17 -4737.979816  -6.74  -4.24c
iter:   3 22:47:04 -4737.979746c -7.06  -4.37c
iter:   4 22:47:51 -4737.979704c -6.83  -4.45c
iter:   5 22:48:37 -4737.979698c -7.40  -4.81c
iter:   6 22:49:24 -4737.979696c -8.36c -5.02c

[...]

     iter     time        total  log10-change:
                         energy  eigst   dens
iter:   1 22:55:04 -4737.979798  -6.66
iter:   2 22:55:52 -4737.979890  -6.48  -4.32c
iter:   3 22:56:40 -4737.979691c -7.10  -4.18c
iter:   4 22:57:27 -4737.979693c -7.55c -5.10c

[...]

                   Cl    Cu Cl  Cu    Cu
                     Cu    Cu     Cu
                      Cu
                Cu    Cu    CCu    Cu
                 Cu    Cu     Cu

[...]

     iter     time        total  log10-change:
                         energy  eigst   dens
iter:   1 22:58:47 -4737.979724  -7.17
iter:   2 22:59:35 -4737.979735  -7.33  -4.64c
iter:   3 23:00:22 -4737.979702c -7.76c -4.58c

[...]

                        Cl
                                   Cl
                                Cu    Cu
                   Cl    Cu Cl
                     Cu    Cu     Cu
                Cu    Cu
                      Cu    CCu    Cu
                 Cu    Cu     Cu

[...]

         Cu    Cu    Cu    Cu     Cu
                Cu     Cu    Cu
                      Cu    Cu     Cu
                 Cu     Cu    Cu

[...]

                                Cl
                          Cl     Cl
                    Cl  Cl
                       Cl
                                  Cl

                   Cl    CuCl  Cu     Cu
                    Cu     Cu    Cu

                Cu   CCu    CCu   Cu

                 Cu    Cu     Cu
            Cu   CuCu   CCu   Cu

             Cu    Cu    CCu   Cu     Cu
        Cu     Cu   CCu    Cu    Cu

                Cu   CCu    CCu   Cu
                              Cu
                 Cu    Cu
            Cu   CuCu   CCu   Cu

             Cu    Cu     Cu
        Cu     Cu   CCu       Cl

[...]

         Cu    Cu    CCu   Cu     Cu
                Cu    CCu    Cu
                            Cu     Cu
                 Cu     Cu    Cu

[...]

            Cu    CCu    Cu    Cu
             Cu     Cu    Cu    Cu    Cu

         Cu    Cu    CCu   Cu     Cu
                Cu    CCu    Cu
                            Cu     Cu
                 Cu     Cu    Cu

[...]

System changes: positions

Initializing position-dependent things.

Density initialized from wave functions

                                Cl

                    Cl   ClCl    Cl

                        Cl
                                   Cl
                                Cu    Cu
                   Cl    Cu Cl
                     Cu    Cu     Cu
                Cu     Cu
                      Cu    CCu    Cu
                 Cu    Cu     Cu

            Cu    CCu   CCu    Cu
             Cu     Cu    Cu    Cu    Cu

         Cu    Cu    CCu   Cu     Cu
                Cu     Cu    Cu
                      Cu    Cu     Cu
                 Cu     Cu    Cu

            Cu    CCu    Cu    Cu
             Cu     Cu    Cu
                     Cl
         Cu    Cu     Cu      Cl

                  Cl          Cl

       Cl      Cl   Cl   Cl    Cl

Positions:
   0 Cu     2.759354   -0.018357   10.036802    ( 0.0000,  0.0000,  0.0000)
   1 Cu     4.116193    2.230777    9.979821    ( 0.0000,  0.0000,  0.0000)
   2 Cu     0.185656   -0.025065   10.117372    ( 0.0000,  0.0000,  0.0000)
   3 Cu     1.496490    2.228249   10.038060    ( 0.0000,  0.0000,  0.0000)
   4 Cu     2.809508    2.989519   12.134103    ( 0.0000,  0.0000,  0.0000)
   5 Cu     1.516662    0.741538   12.153146    ( 0.0000,  0.0000,  0.0000)
   6 Cu     5.424759    2.989131   12.137087    ( 0.0000,  0.0000,  0.0000)
   7 Cu     4.120166    0.747964   12.152295    ( 0.0000,  0.0000,  0.0000)
   8 Cu     5.422326    1.484977   14.311676    ( 0.0000,  0.0000,  0.0000)
   9 Cu     6.722618    3.752545   14.301772    ( 0.0000,  0.0000,  0.0000)
  10 Cu     2.807580    1.478773   14.301703    ( 0.0000,  0.0000,  0.0000)
  11 Cu     4.117722    3.744273   14.294883    ( 0.0000,  0.0000,  0.0000)
  12 Cu     2.800604   -0.036468   16.455264    ( 0.0000,  0.0000,  0.0000)
  13 Cu     4.102343    2.234721   16.446833    ( 0.0000,  0.0000,  0.0000)
  14 Cu     0.181610   -0.033772   16.459526    ( 0.0000,  0.0000,  0.0000)
  15 Cu     1.486272    2.230694   16.418312    ( 0.0000,  0.0000,  0.0000)
  16 Cu     2.780602    2.992006   18.573946    ( 0.0000,  0.0000,  0.0000)
  17 Cu     1.492552    0.733735   18.575479    ( 0.0000,  0.0000,  0.0000)
  18 Cu     5.413447    2.980537   18.585668    ( 0.0000,  0.0000,  0.0000)
  19 Cu     4.117107    0.725122   18.600196    ( 0.0000,  0.0000,  0.0000)
  20 Cu     5.411785    1.478736   20.770069    ( 0.0000,  0.0000,  0.0000)
  21 Cu     6.708083    3.773606   20.707460    ( 0.0000,  0.0000,  0.0000)
  22 Cu     2.758630    1.447558   20.685278    ( 0.0000,  0.0000,  0.0000)
  23 Cu     4.111607    3.777814   20.700916    ( 0.0000,  0.0000,  0.0000)
  24 Cu     5.444388    4.532709   10.045255    ( 0.0000,  0.0000,  0.0000)
  25 Cu     2.795521    4.532258   10.035772    ( 0.0000,  0.0000,  0.0000)
  26 Cu     4.118799    5.255732   12.192861    ( 0.0000,  0.0000,  0.0000)
  27 Cu     6.729416    5.260153   12.133782    ( 0.0000,  0.0000,  0.0000)
  28 Cu     8.038928    6.017645   14.271408    ( 0.0000,  0.0000,  0.0000)
  29 Cu     5.426761    6.021799   14.300231    ( 0.0000,  0.0000,  0.0000)
  30 Cu     5.411036    4.509131   16.451980    ( 0.0000,  0.0000,  0.0000)
  31 Cu     2.800289    4.503827   16.426058    ( 0.0000,  0.0000,  0.0000)
  32 Cu     4.084778    5.242833   18.594803    ( 0.0000,  0.0000,  0.0000)
  33 Cu     6.732613    5.237616   18.593150    ( 0.0000,  0.0000,  0.0000)
  34 Cu     7.992033    6.016588   20.695818    ( 0.0000,  0.0000,  0.0000)
  35 Cu     5.412473    5.997914   20.660576    ( 0.0000,  0.0000,  0.0000)
  36 Cu     5.464645   -0.020053   10.019523    ( 0.0000,  0.0000,  0.0000)
  37 Cu     6.736070    2.227574   10.038116    ( 0.0000,  0.0000,  0.0000)
  38 Cu     8.041920    3.004123   12.184053    ( 0.0000,  0.0000,  0.0000)
  39 Cu     6.711460    0.741471   12.150605    ( 0.0000,  0.0000,  0.0000)
  40 Cu     8.037782    1.473590   14.285037    ( 0.0000,  0.0000,  0.0000)
  41 Cu     9.352149    3.752206   14.292081    ( 0.0000,  0.0000,  0.0000)
  42 Cu     5.411427   -0.033401   16.432014    ( 0.0000,  0.0000,  0.0000)
  43 Cu     6.729679    2.232521   16.444644    ( 0.0000,  0.0000,  0.0000)
  44 Cu     8.037559    2.998298   18.563758    ( 0.0000,  0.0000,  0.0000)
  45 Cu     6.697524    0.721762   18.592549    ( 0.0000,  0.0000,  0.0000)
  46 Cu     8.057031    1.439634   20.645413    ( 0.0000,  0.0000,  0.0000)
  47 Cu     9.335370    3.743458   20.692307    ( 0.0000,  0.0000,  0.0000)
  48 Cu     8.044295    4.525270   10.043278    ( 0.0000,  0.0000,  0.0000)
  49 Cu     9.358174    5.261809   12.129971    ( 0.0000,  0.0000,  0.0000)
  50 Cu    10.657324    6.024211   14.296320    ( 0.0000,  0.0000,  0.0000)
  51 Cu     8.028933    4.505037   16.420776    ( 0.0000,  0.0000,  0.0000)
  52 Cu     9.332774    5.250879   18.559998    ( 0.0000,  0.0000,  0.0000)
  53 Cu    10.666890    6.020700   20.689235    ( 0.0000,  0.0000,  0.0000)
  54 Cl     7.274836    2.392158   22.601041    ( 0.0000,  0.0000,  0.0000)
  55 Cl     4.144456    4.026842    8.127031    ( 0.0000,  0.0000,  0.0000)
  56 Cl     9.336749    5.431205   22.580593    ( 0.0000,  0.0000,  0.0000)
  57 Cl    -0.377429   -0.081314    5.985978    ( 0.0000,  0.0000,  0.0000)
  58 Cl     7.930306    5.464102    3.162730    ( 0.0000,  0.0000,  0.0000)
  59 Cl     4.385653    1.415341   26.538916    ( 0.0000,  0.0000,  0.0000)
  60 Cl     5.028047    6.539517   23.907990    ( 0.0000,  0.0000,  0.0000)
  61 Cl     6.287535    1.327269    5.151306    ( 0.0000,  0.0000,  0.0000)
  62 Cl     3.786676    3.338635    4.123849    ( 0.0000,  0.0000,  0.0000)
  63 Cl     9.173995    2.556429   27.427204    ( 0.0000,  0.0000,  0.0000)
  64 Cl     3.772339    2.346746   22.594058    ( 0.0000,  0.0000,  0.0000)
  65 Cl     8.049519    3.037480    8.148726    ( 0.0000,  0.0000,  0.0000)
  66 Cl     4.082468    0.325948    8.122682    ( 0.0000,  0.0000,  0.0000)
  67 Cl     6.094399    5.160302   24.939555    ( 0.0000,  0.0000,  0.0000)
  68 Cl     9.132403    3.616256   25.712180    ( 0.0000,  0.0000,  0.0000)
  69 Cl     2.350708    2.140431    4.875972    ( 0.0000,  0.0000,  0.0000)
  70 Cl     7.406714    5.086995    5.072225    ( 0.0000,  0.0000,  0.0000)
  71 Cl     6.097940    0.659931   25.782147    ( 0.0000,  0.0000,  0.0000)

Unit cell:
           periodic     x           y           z      points  spacing
  1. axis:    yes    7.851007    0.000000    0.000000    45     0.1511
  2. axis:    yes    3.925503    6.799171    0.000000    45     0.1511
  3. axis:    yes    0.000000    0.000000   30.683867   175     0.1753

  Lengths:   7.851007   7.851006  30.683867
  Angles:   90.000000  90.000000  60.000001

Effective grid spacing dv^(1/3) = 0.1666

     iter     time        total  log10-change:
                         energy  eigst   dens
iter:   1 00:00:11 -4738.007294  -3.73
iter:   2 00:00:57 -4738.023068  -4.14  -3.07
iter:   3 00:01:43 -4737.987053c -4.79  -3.00
iter:   4 00:02:30 -4737.986597c -5.13  -3.50
iter:   5 00:03:24 -4737.986528c -5.74  -3.76
iter:   6 00:04:17 -4737.986159c -5.65  -3.81
iter:   7 00:05:11 -4737.986085c -6.20  -3.96
iter:   8 00:06:06 -4737.986051c -6.58  -4.22c
iter:   9 00:07:00 -4737.986006c -6.30  -4.35c
iter:  10 00:07:55 -4737.985998c -7.28  -4.61c
iter:  11 00:08:49 -4737.986001c -7.75c -4.65c

Converged after 11 iterations.

Dipole moment: (20.632453, 2.833392, 0.033323) |e|*Ang

Energy contributions relative to reference atoms: (reference = -2657147.488543)

Kinetic:       +500.959042
Potential:     -531.321348
External:        +0.000000
XC:            -4706.743873
Entropy (-ST):   -0.536345
Local:           -0.611649
Free energy:   -4738.254174
Extrapolated:  -4737.986001

Showing only first 2 kpts
 Kpt  Band  Eigenvalues  Occupancy
  0   358      1.66142    1.38215
  0   359      1.72105    1.10407
  0   360      1.80432    0.69784
  0   361      1.95687    0.20878

  1   358      1.18132    1.99268
  1   359      1.25733    1.98440
  1   360      1.52180    1.80075
  1   361      1.76712    0.87474

Fermi level: 1.74194

No gap

Forces in eV/Ang:
  0 Cu   -0.00118   -0.00089    0.00244
  1 Cu    0.00344    0.00427    0.00010
  2 Cu    0.00322    0.00251    0.00370
  3 Cu    0.00072   -0.00133    0.00902
  4 Cu   -0.00306    0.00784    0.00228
  5 Cu   -0.00101   -0.00215   -0.00158
  6 Cu    0.00111    0.00546   -0.00602
  7 Cu   -0.00245   -0.00061   -0.00266
  8 Cu   -0.00063   -0.00038   -0.00585
  9 Cu    0.00200    0.00129   -0.00706
 10 Cu    0.00100    0.00127    0.00067
 11 Cu    0.00118   -0.00010    0.00213
 12 Cu   -0.00403   -0.00189    0.00061
 13 Cu   -0.00053   -0.00387    0.00272
 14 Cu   -0.00051   -0.00035   -0.00251
 15 Cu    0.00019    0.00165    0.00057
 16 Cu    0.00311    0.00083    0.00033
 17 Cu   -0.00340    0.00104    0.01086
 18 Cu    0.00072    0.00361   -0.00076
 19 Cu   -0.00081    0.00254   -0.00449
 20 Cu    0.00528   -0.00615   -0.01534
 21 Cu    0.00303   -0.00258   -0.00653
 22 Cu   -0.00253    0.00186   -0.00047
 23 Cu   -0.00363   -0.00050    0.00203
 24 Cu    0.00221    0.00466   -0.00541
 25 Cu   -0.00021    0.00672    0.00059
 26 Cu    0.00016    0.00147   -0.00452
 27 Cu   -0.00591    0.00157   -0.00149
 28 Cu   -0.00376    0.00247   -0.00022
 29 Cu   -0.00470   -0.00143   -0.00095
 30 Cu    0.00183    0.00090   -0.00276
 31 Cu    0.00131    0.00054    0.00163
 32 Cu   -0.00088   -0.00000    0.00064
 33 Cu   -0.00324    0.00172    0.00038
 34 Cu    0.00166   -0.00264   -0.01214
 35 Cu   -0.01198    0.00066    0.00273
 36 Cu    0.00286    0.00319   -0.00090
 37 Cu    0.00656   -0.00174    0.00428
 38 Cu   -0.00127    0.00229   -0.00076
 39 Cu   -0.00066   -0.00185   -0.00413
 40 Cu    0.00220   -0.00153   -0.00441
 41 Cu    0.00034    0.00355    0.00029
 42 Cu   -0.00289   -0.00316   -0.00185
 43 Cu   -0.00096    0.00033   -0.00569
 44 Cu    0.00206   -0.00239   -0.00090
 45 Cu    0.00286   -0.00203   -0.00255
 46 Cu   -0.00157    0.00509    0.00872
 47 Cu    0.00259    0.00351   -0.00516
 48 Cu   -0.00062    0.00226    0.00946
 49 Cu   -0.00031    0.00384   -0.00559
 50 Cu   -0.00088   -0.00347   -0.00210
 51 Cu   -0.00039    0.00178   -0.00162
 52 Cu    0.00522   -0.00085   -0.00939
 53 Cu    0.00147   -0.00299    0.00017
 54 Cl    0.00252    0.00690    0.00417
 55 Cl    0.00113   -0.00581    0.00629
 56 Cl    0.00405    0.00281    0.00686
 57 Cl    0.01325   -0.02012   -0.00594
 58 Cl   -0.01675   -0.01139    0.02145
 59 Cl   -0.01035   -0.01064   -0.00531
 60 Cl    0.00462    0.00556    0.00663
 61 Cl   -0.00616    0.01901   -0.00410
 62 Cl   -0.00981   -0.00514    0.01036
 63 Cl    0.00862    0.00375   -0.00116
 64 Cl   -0.00442    0.00576    0.00212
 65 Cl    0.00145   -0.00798    0.00240
 66 Cl   -0.00121   -0.00199    0.00352
 67 Cl   -0.00228   -0.01065    0.01084
 68 Cl    0.00489    0.00575    0.00064
 69 Cl    0.00028    0.00388    0.00640
 70 Cl    0.01053   -0.00342   -0.01240
 71 Cl    0.02501    0.00387    0.00021