User:   thorkong@node024.cluster
Date:   Fri Oct 14 20:02:32 2022
Arch:   x86_64
Pid:    111571
Python: 3.10.5
gpaw:   /groups/kemi/thorkong/miniconda3/envs/gpaw22/lib/python3.10/site-packages/gpaw
_gpaw:  /groups/kemi/thorkong/miniconda3/envs/gpaw22/lib/python3.10/site-packages/
        _gpaw.cpython-310-x86_64-linux-gnu.so
ase:    /groups/kemi/thorkong/miniconda3/envs/gpaw22/lib/python3.10/site-packages/ase (version 3.22.1)
numpy:  /groups/kemi/thorkong/miniconda3/envs/gpaw22/lib/python3.10/site-packages/numpy (version 1.23.0)
scipy:  /groups/kemi/thorkong/miniconda3/envs/gpaw22/lib/python3.10/site-packages/scipy (version 1.8.1)
units:  Angstrom and eV
cores: 32
OpenMP: True
OMP_NUM_THREADS: 1

Input parameters:
  basis: dzp
  kpts: [4 4 1]
  mode: {ecut: 600.0,
         name: pw}
  xc: BEEF-vdW

System changes: positions, numbers, cell, pbc, initial_charges, initial_magmoms

Initialize ...

Cu-setup:
  name: Copper
  id: f1c4d45d90492f1bbfdcb091e8418fdf
  Z: 29.0
  valence: 11
  core: 18
  charge: 0.0
  file: /groups/kemi/thorkong/miniconda3/envs/gpaw22/share/gpaw/Cu.PBE.gz
  compensation charges: gauss, rc=0.33, lmax=2
  cutoffs: 2.06(filt), 2.43(core),
  valence states:
                energy  radius
    4s(1.00)    -4.609   1.164
    4p(0.00)    -0.698   1.164
    3d(10.00)    -5.039   1.058
    *s          22.603   1.164
    *p          26.513   1.164
    *d          22.172   1.058

  LCAO basis set for Cu:
    Name: dzp
    File: /groups/kemi/thorkong/miniconda3/envs/gpaw22/share/gpaw/Cu.dzp.basis.gz
    Number of radial functions: 5
    Number of spherical harmonics: 15
      l=0, rc=8.9688 Bohr: 4s-sz confined orbital
      l=2, rc=5.1719 Bohr: 3d-sz confined orbital
      l=0, rc=5.3281 Bohr: 4s-dz split-valence wave
      l=2, rc=3.1406 Bohr: 3d-dz split-valence wave
      l=1, rc=8.9688 Bohr: p-type Gaussian polarization

Cl-setup:
  name: Chlorine
  id: 726897f06f34e53cf8e33b5885a02604
  Z: 17.0
  valence: 7
  core: 10
  charge: 0.0
  file: /groups/kemi/thorkong/miniconda3/envs/gpaw22/share/gpaw/Cl.PBE.gz
  compensation charges: gauss, rc=0.25, lmax=2
  cutoffs: 1.40(filt), 1.49(core),
  valence states:
                energy  radius
    3s(2.00)   -20.689   0.794
    3p(5.00)    -8.594   0.794
    *s           6.523   0.794
    *p          18.617   0.794
    *d           0.000   0.794

  LCAO basis set for Cl:
    Name: dzp
    File: /groups/kemi/thorkong/miniconda3/envs/gpaw22/share/gpaw/Cl.dzp.basis.gz
    Number of radial functions: 5
    Number of spherical harmonics: 13
      l=0, rc=5.1719 Bohr: 3s-sz confined orbital
      l=1, rc=6.2656 Bohr: 3p-sz confined orbital
      l=0, rc=2.8281 Bohr: 3s-dz split-valence wave
      l=1, rc=3.5156 Bohr: 3p-dz split-valence wave
      l=2, rc=6.2656 Bohr: d-type Gaussian polarization

Reference energy: -2456268.298212

Spin-paired calculation

Convergence criteria:
 Maximum [total energy] change in last 3 cyles: 0.0005 eV / electron
 Maximum integral of absolute [dens]ity change: 0.0001 electrons / valence electron
 Maximum integral of absolute [eigenst]ate change: 4e-08 eV^2 / valence electron
 Maximum number of scf [iter]ations: 333
 (Square brackets indicate name in SCF output, whereas a 'c' in
 the SCF output indicates the quantity has converged.)

Symmetries present (total): 1

  ( 1  0  0)
  ( 0  1  0)
  ( 0  0  1)

16 k-points: 4 x 4 x 1 Monkhorst-Pack grid
8 k-points in the irreducible part of the Brillouin zone
       k-points in crystal coordinates                weights
   0:     0.12500000   -0.37500000    0.00000000          2/16
   1:     0.12500000   -0.12500000    0.00000000          2/16
   2:     0.12500000    0.12500000    0.00000000          2/16
   3:     0.12500000    0.37500000    0.00000000          2/16
   4:     0.37500000   -0.37500000    0.00000000          2/16
   5:     0.37500000   -0.12500000    0.00000000          2/16
   6:     0.37500000    0.12500000    0.00000000          2/16
   7:     0.37500000    0.37500000    0.00000000          2/16

Wave functions: Plane wave expansion
  Cutoff energy: 600.000 eV
  Number of coefficients (min, max): 54614, 54705
  Pulay-stress correction: 0.000000 eV/Ang^3 (de/decut=0.000000)
  Using FFTW library
  ScaLapack parameters: grid=2x2, blocksize=64
  Wavefunction extrapolation:
    Improved wavefunction reuse through dual PAW basis

Occupation numbers: Fermi-Dirac: width=0.1000 eV

Eigensolver
   Davidson(niter=2)

Densities:
  Coarse grid: 45*45*175 grid
  Fine grid: 90*90*350 grid
  Total Charge: 0.000000

Density mixing:
  Method: separate
  Backend: pulay
  Linear mixing parameter: 0.05
  Mixing with 5 old densities
  Damping of long wave oscillations: 50

Hamiltonian:
  XC and Coulomb potentials evaluated on a 90*90*350 grid
  Using the BEEF-vdW Exchange-Correlation functional
  External potential:
    NoExternalPotential

XC parameters: BEEF-vdW with 2 nearest neighbor stencil

Total number of cores used: 32
Parallelization over k-points: 8
Domain decomposition: 1 x 1 x 4
                      2 x 2 x 8 (xc only)

Number of atoms: 56
Number of atomic orbitals: 836
Number of bands in calculation: 369
Number of valence electrons: 608
Bands to converge: occupied

... initialized

Initializing position-dependent things.

Density initialized from atomic densities
Creating initial wave functions:
  369 bands from LCAO basis set

                        Cl    Cu     Cu
                   Cu     Cu    Cu

               Cu   CCu    CCu   Cu

                Cu    Cu    Cu
           Cu   CCu    CCu   Cu

            Cu    Cu    CCu   Cu     Cu
       Cu     Cu   CCu    Cu    Cu

               Cu   CCu    CCu   Cu
                Cu    Cu    Cu

[...]

Positions:
   0 Cu     2.892070    0.001171   10.020850    ( 0.0000,  0.0000,  0.0000)
   1 Cu     4.169996    2.247710    9.962199    ( 0.0000,  0.0000,  0.0000)
   2 Cu     0.279952    0.001804   10.022098    ( 0.0000,  0.0000,  0.0000)
   3 Cu     1.585462    2.264297   10.020848    ( 0.0000,  0.0000,  0.0000)
   4 Cu     2.913350    3.017946   12.117167    ( 0.0000,  0.0000,  0.0000)
   5 Cu     1.586943    0.756403   12.142658    ( 0.0000,  0.0000,  0.0000)
   6 Cu     5.513170    3.023206   12.124921    ( 0.0000,  0.0000,  0.0000)
   7 Cu     4.208705    0.774324   12.117167    ( 0.0000,  0.0000,  0.0000)
   8 Cu     5.513591    1.509238   14.272783    ( 0.0000,  0.0000,  0.0000)
   9 Cu     6.823043    3.779464   14.274281    ( 0.0000,  0.0000,  0.0000)
  10 Cu     2.891325    1.509485   14.270251    ( 0.0000,  0.0000,  0.0000)
  11 Cu     4.202245    3.780557   14.272783    ( 0.0000,  0.0000,  0.0000)
  12 Cu     2.896092   -0.004925   16.428932    ( 0.0000,  0.0000,  0.0000)
  13 Cu     4.198671    2.264280   16.409235    ( 0.0000,  0.0000,  0.0000)
  14 Cu     0.270492   -0.003655   16.427922    ( 0.0000,  0.0000,  0.0000)
  15 Cu     1.582192    2.270818   16.428931    ( 0.0000,  0.0000,  0.0000)
  16 Cu     2.908684    3.026262   18.564979    ( 0.0000,  0.0000,  0.0000)
  17 Cu     1.582571    0.753873   18.536173    ( 0.0000,  0.0000,  0.0000)
  18 Cu     5.508528    3.020522   18.558707    ( 0.0000,  0.0000,  0.0000)
  19 Cu     4.213572    0.766128   18.564978    ( 0.0000,  0.0000,  0.0000)
  20 Cu     5.510454    1.470120   20.719073    ( 0.0000,  0.0000,  0.0000)
  21 Cu     6.851715    3.796006   20.721591    ( 0.0000,  0.0000,  0.0000)
  22 Cu     2.870756    1.497603   20.658336    ( 0.0000,  0.0000,  0.0000)
  23 Cu     4.166831    3.797368   20.719072    ( 0.0000,  0.0000,  0.0000)
  24 Cu     5.511281    4.573648    9.964724    ( 0.0000,  0.0000,  0.0000)
  25 Cu     2.872642    4.546957   10.024891    ( 0.0000,  0.0000,  0.0000)
  26 Cu     4.217762    5.278051   12.118338    ( 0.0000,  0.0000,  0.0000)
  27 Cu     6.808142    5.277634   12.118722    ( 0.0000,  0.0000,  0.0000)
  28 Cu     8.125635    6.048665   14.254724    ( 0.0000,  0.0000,  0.0000)
  29 Cu     5.512876    6.048846   14.270796    ( 0.0000,  0.0000,  0.0000)
  30 Cu     5.508121    4.534502   16.410731    ( 0.0000,  0.0000,  0.0000)
  31 Cu     2.888425    4.533601   16.412844    ( 0.0000,  0.0000,  0.0000)
  32 Cu     4.203491    5.269781   18.565365    ( 0.0000,  0.0000,  0.0000)
  33 Cu     6.812972    5.269389   18.566529    ( 0.0000,  0.0000,  0.0000)
  34 Cu     8.129607    6.042573   20.662768    ( 0.0000,  0.0000,  0.0000)
  35 Cu     5.509185    6.069218   20.658759    ( 0.0000,  0.0000,  0.0000)
  36 Cu     5.512517   -0.025470   10.024891    ( 0.0000,  0.0000,  0.0000)
  37 Cu     6.854955    2.246328    9.964731    ( 0.0000,  0.0000,  0.0000)
  38 Cu     8.113051    3.017471   12.118724    ( 0.0000,  0.0000,  0.0000)
  39 Cu     6.818223    0.773922   12.118340    ( 0.0000,  0.0000,  0.0000)
  40 Cu     8.133301    1.510134   14.270799    ( 0.0000,  0.0000,  0.0000)
  41 Cu     9.439526    3.772941   14.254724    ( 0.0000,  0.0000,  0.0000)
  42 Cu     5.508837   -0.005088   16.412842    ( 0.0000,  0.0000,  0.0000)
  43 Cu     6.819465    2.263186   16.410731    ( 0.0000,  0.0000,  0.0000)
  44 Cu     8.108336    3.025771   18.566528    ( 0.0000,  0.0000,  0.0000)
  45 Cu     6.803933    0.765694   18.565362    ( 0.0000,  0.0000,  0.0000)
  46 Cu     8.149112    1.496737   20.658757    ( 0.0000,  0.0000,  0.0000)
  47 Cu     9.436245    3.779424   20.662769    ( 0.0000,  0.0000,  0.0000)
  48 Cu     8.150960    4.546132   10.025314    ( 0.0000,  0.0000,  0.0000)
  49 Cu     9.439122    5.289856   12.147451    ( 0.0000,  0.0000,  0.0000)
  50 Cu    10.751202    6.047386   14.255724    ( 0.0000,  0.0000,  0.0000)
  51 Cu     8.130371    4.534249   16.413375    ( 0.0000,  0.0000,  0.0000)
  52 Cu     9.434738    5.287328   18.540974    ( 0.0000,  0.0000,  0.0000)
  53 Cu    10.741737    6.041911   20.661523    ( 0.0000,  0.0000,  0.0000)
  54 Cl     6.210979    2.721882   22.628867    ( 0.0000,  0.0000,  0.0000)
  55 Cl     4.720843    3.182593    8.055071    ( 0.0000,  0.0000,  0.0000)

Unit cell:
           periodic     x           y           z      points  spacing
  1. axis:    yes    7.851007    0.000000    0.000000    45     0.1511
  2. axis:    yes    3.925503    6.799171    0.000000    45     0.1511
  3. axis:    yes    0.000000    0.000000   30.683867   175     0.1753

  Lengths:   7.851007   7.851006  30.683867
  Angles:   90.000000  90.000000  60.000001

Effective grid spacing dv^(1/3) = 0.1666

     iter     time        total  log10-change:
                         energy  eigst   dens
iter:   1 20:07:01 -4204.552494
iter:   2 20:07:42 -4188.947005  -0.99  -1.16
iter:   3 20:08:24 -4180.101428  -1.14  -1.25
iter:   4 20:09:05 -4169.458552  -1.20  -1.32
iter:   5 20:09:47 -4173.493659  -1.71  -1.54
iter:   6 20:10:29 -4164.465862  -2.09  -1.57
iter:   7 20:11:11 -4163.649247  -1.91  -1.73
iter:   8 20:11:53 -4162.640497  -2.47  -1.73
iter:   9 20:12:35 -4162.750874  -2.46  -1.99
iter:  10 20:13:17 -4162.437984  -3.19  -2.46
iter:  11 20:13:57 -4162.388620  -2.69  -2.52
iter:  12 20:14:49 -4162.304900c -3.07  -2.53
iter:  13 20:15:49 -4162.206910c -3.49  -2.84
iter:  14 20:16:31 -4162.200679c -4.10  -2.98
iter:  15 20:17:19 -4162.199161c -3.99  -3.04
iter:  16 20:18:03 -4162.196623c -5.38  -3.21
iter:  17 20:18:45 -4162.193999c -4.38  -3.26
iter:  18 20:19:27 -4162.192840c -5.05  -3.43
iter:  19 20:20:10 -4162.192766c -5.78  -3.58
iter:  20 20:20:52 -4162.192370c -6.07  -3.64
iter:  21 20:21:34 -4162.192308c -5.99  -3.71
iter:  22 20:22:16 -4162.192267c -5.88  -3.85
iter:  23 20:23:00 -4162.192247c -6.76  -3.96
iter:  24 20:23:42 -4162.192178c -5.80  -4.05c
iter:  25 20:24:30 -4162.192133c -7.08  -4.47c
iter:  26 20:25:12 -4162.192104c -7.13  -4.50c
iter:  27 20:25:55 -4162.192095c -7.56c -4.58c

Converged after 27 iterations.

Dipole moment: (-6.343946, 2.013562, 0.003069) |e|*Ang

Energy contributions relative to reference atoms: (reference = -2456268.298212)

Kinetic:       +393.308297
Potential:     -437.898042
External:        +0.000000
XC:            -4116.550774
Entropy (-ST):   -0.526349
Local:           -0.788401
Free energy:   -4162.455269
Extrapolated:  -4162.192095

Showing only first 2 kpts
 Kpt  Band  Eigenvalues  Occupancy
  0   302      0.09717    1.17833
  0   303      0.15614    0.88589
  0   304      0.26551    0.42067
  0   305      0.42150    0.10602

  1   302     -0.42761    1.99269
  1   303     -0.27046    1.96531
  1   304     -0.13689    1.87418
  1   305      0.13768    0.97768

Fermi level: 0.13322

No gap

Forces in eV/Ang:
  0 Cu   -0.02717   -0.05390    0.03125
  1 Cu   -0.11033   -0.47169    0.65929
  2 Cu   -0.02436    0.07631   -0.02313
  3 Cu   -0.14133   -0.02276    0.02149
  4 Cu   -0.03031   -0.00701    0.06175
  5 Cu    0.02523    0.00747    0.00473
  6 Cu   -0.00970    0.00084   -0.04840
  7 Cu   -0.01696    0.04267   -0.02133
  8 Cu   -0.00891    0.00908   -0.00133
  9 Cu   -0.00867    0.00058   -0.01273
 10 Cu    0.01720   -0.00135    0.03983
 11 Cu    0.00795   -0.00999   -0.00005
 12 Cu    0.00780   -0.00706    0.01862
 13 Cu    0.00893   -0.00019    0.01194
 14 Cu    0.00173    0.00077   -0.03978
 15 Cu   -0.00301   -0.00253   -0.03524
 16 Cu   -0.04733   -0.03365   -0.03901
 17 Cu   -0.04303    0.02255    0.01257
 18 Cu    0.00836   -0.00169    0.04801
 19 Cu    0.02574    0.00308    0.01169
 20 Cu   -0.17727   -0.01493   -0.04124
 21 Cu    0.00862    0.29643   -0.26989
 22 Cu    0.05828    0.06621    0.01664
 23 Cu    0.01820   -0.02274   -0.14323
 24 Cu    0.13766   -0.05438   -0.02653
 25 Cu   -0.05588    0.06674    0.01356
 26 Cu   -0.03022    0.01671    0.05577
 27 Cu   -0.01714   -0.00115   -0.00621
 28 Cu   -0.00717    0.00555   -0.01729
 29 Cu    0.01158   -0.00660    0.02140
 30 Cu    0.00864   -0.00887    0.00345
 31 Cu    0.00622   -0.00578   -0.00321
 32 Cu    0.00983    0.05552   -0.03865
 33 Cu    0.01272   -0.03958    0.02272
 34 Cu    0.00752    0.01821   -0.02843
 35 Cu   -0.03772   -0.06386    0.00038
 36 Cu    0.04842    0.04364    0.01082
 37 Cu   -0.01225    0.03731    0.14438
 38 Cu    0.05059    0.03160    0.03533
 39 Cu   -0.01230   -0.05534    0.04473
 40 Cu   -0.00662    0.00510    0.00417
 41 Cu    0.00322    0.00433    0.03438
 42 Cu   -0.01204    0.00660   -0.02773
 43 Cu   -0.00887    0.00925    0.00070
 44 Cu    0.02904   -0.00030   -0.05671
 45 Cu    0.02456   -0.02037   -0.05732
 46 Cu    0.06763   -0.05183   -0.01430
 47 Cu    0.11853    0.02133   -0.00825
 48 Cu   -0.07889   -0.06782   -0.02636
 49 Cu    0.04148   -0.02192   -0.01443
 50 Cu   -0.00278   -0.00135    0.04057
 51 Cu   -0.01700    0.00207   -0.03268
 52 Cu   -0.01982    0.00122   -0.00558
 53 Cu    0.03105   -0.09529    0.01041
 54 Cl   -0.13351   -0.14343    0.40401
 55 Cl    0.29961    0.43532   -0.74192

System changes: positions

[...]

Density initialized from wave functions

[...]

           Cu   CCu    CCu   Cu
            Cu
                  Cu     Cu
       Cu     Cu    Cu

[...]

                        Cl    Cu     Cu
                   Cu     Cu    Cu

[...]

                       Clu    Cu     Cu
                   Cu     Cu    Cu

[...]

                       Clu    Cu     Cu
                   Cu     Cu    Cu

               Cu   CCu    CCu   Cu

[...]

           Cu   CCu    CCu   Cu
            Cu
                  Cu     Cu
       Cu     Cu    Cu

[...]

                       Clu    Cu     Cu
                          Cu
                   Cu           Cu
               Cu   CCu    CCu   Cu

[...]

           Cu   CCu    CCu   Cu
            Cu           Cu
                  Cu
       Cu     Cu    Cul

[...]

                       Clu    Cu     Cu
                   Cu     Cu
                                Cu
               Cu   CCu    CCu   Cu

[...]

System changes: positions

Initializing position-dependent things.

Density initialized from wave functions

                       Clu    Cu     Cu
                   Cu     Cu
                                Cu
               Cu   CCu    CCu   Cu

                Cu    Cu    Cu
           Cu   CCu    CCu   Cu

            Cu    Cu    CCu   Cu     Cu
       Cu     Cu   CCu    Cu    Cu

               Cu   CCu    CCu   Cu
                Cu    Cu    Cu

           Cu   CCu    CCu   Cu
            Cu           Cu
                  Cu
       Cu     Cu    Cul

Positions:
   0 Cu     2.884162   -0.011729   10.033678    ( 0.0000,  0.0000,  0.0000)
   1 Cu     4.175487    2.207390    9.968025    ( 0.0000,  0.0000,  0.0000)
   2 Cu     0.268779    0.005327   10.035957    ( 0.0000,  0.0000,  0.0000)
   3 Cu     1.563079    2.250160   10.040939    ( 0.0000,  0.0000,  0.0000)
   4 Cu     2.905835    3.013667   12.132731    ( 0.0000,  0.0000,  0.0000)
   5 Cu     1.587256    0.751197   12.155983    ( 0.0000,  0.0000,  0.0000)
   6 Cu     5.501600    3.021336   12.124235    ( 0.0000,  0.0000,  0.0000)
   7 Cu     4.203724    0.772150   12.120007    ( 0.0000,  0.0000,  0.0000)
   8 Cu     5.509809    1.511263   14.273560    ( 0.0000,  0.0000,  0.0000)
   9 Cu     6.817749    3.779201   14.272965    ( 0.0000,  0.0000,  0.0000)
  10 Cu     2.895657    1.507106   14.282845    ( 0.0000,  0.0000,  0.0000)
  11 Cu     4.204745    3.779097   14.275593    ( 0.0000,  0.0000,  0.0000)
  12 Cu     2.898323   -0.006205   16.439255    ( 0.0000,  0.0000,  0.0000)
  13 Cu     4.202828    2.263486   16.411249    ( 0.0000,  0.0000,  0.0000)
  14 Cu     0.271173   -0.001683   16.415015    ( 0.0000,  0.0000,  0.0000)
  15 Cu     1.580207    2.267720   16.418056    ( 0.0000,  0.0000,  0.0000)
  16 Cu     2.898773    3.019517   18.534881    ( 0.0000,  0.0000,  0.0000)
  17 Cu     1.574509    0.759578   18.535562    ( 0.0000,  0.0000,  0.0000)
  18 Cu     5.517461    3.017381   18.557838    ( 0.0000,  0.0000,  0.0000)
  19 Cu     4.218777    0.769327   18.565915    ( 0.0000,  0.0000,  0.0000)
  20 Cu     5.482458    1.472743   20.721328    ( 0.0000,  0.0000,  0.0000)
  21 Cu     6.840691    3.826186   20.718062    ( 0.0000,  0.0000,  0.0000)
  22 Cu     2.872766    1.512688   20.651496    ( 0.0000,  0.0000,  0.0000)
  23 Cu     4.179191    3.794081   20.647081    ( 0.0000,  0.0000,  0.0000)
  24 Cu     5.533098    4.559222    9.954112    ( 0.0000,  0.0000,  0.0000)
  25 Cu     2.867968    4.534051   10.029210    ( 0.0000,  0.0000,  0.0000)
  26 Cu     4.213127    5.276205   12.126541    ( 0.0000,  0.0000,  0.0000)
  27 Cu     6.799507    5.268601   12.115394    ( 0.0000,  0.0000,  0.0000)
  28 Cu     8.121886    6.047639   14.244202    ( 0.0000,  0.0000,  0.0000)
  29 Cu     5.516666    6.046671   14.278211    ( 0.0000,  0.0000,  0.0000)
  30 Cu     5.511110    4.531825   16.410270    ( 0.0000,  0.0000,  0.0000)
  31 Cu     2.888634    4.532926   16.406558    ( 0.0000,  0.0000,  0.0000)
  32 Cu     4.204789    5.283723   18.534523    ( 0.0000,  0.0000,  0.0000)
  33 Cu     6.814487    5.265823   18.565627    ( 0.0000,  0.0000,  0.0000)
  34 Cu     8.131354    6.045561   20.650058    ( 0.0000,  0.0000,  0.0000)
  35 Cu     5.501317    6.065983   20.648502    ( 0.0000,  0.0000,  0.0000)
  36 Cu     5.515639   -0.030915   10.037620    ( 0.0000,  0.0000,  0.0000)
  37 Cu     6.838300    2.241957   10.038361    ( 0.0000,  0.0000,  0.0000)
  38 Cu     8.121401    3.021170   12.150082    ( 0.0000,  0.0000,  0.0000)
  39 Cu     6.815400    0.755845   12.149679    ( 0.0000,  0.0000,  0.0000)
  40 Cu     8.132578    1.510559   14.278234    ( 0.0000,  0.0000,  0.0000)
  41 Cu     9.440817    3.775125   14.268637    ( 0.0000,  0.0000,  0.0000)
  42 Cu     5.504098   -0.004613   16.403245    ( 0.0000,  0.0000,  0.0000)
  43 Cu     6.816730    2.264183   16.407976    ( 0.0000,  0.0000,  0.0000)
  44 Cu     8.113114    3.026556   18.553628    ( 0.0000,  0.0000,  0.0000)
  45 Cu     6.806143    0.763216   18.553497    ( 0.0000,  0.0000,  0.0000)
  46 Cu     8.148557    1.500971   20.654047    ( 0.0000,  0.0000,  0.0000)
  47 Cu     9.453486    3.785452   20.645604    ( 0.0000,  0.0000,  0.0000)
  48 Cu     8.143342    4.522704   10.030314    ( 0.0000,  0.0000,  0.0000)
  49 Cu     9.444142    5.279553   12.148158    ( 0.0000,  0.0000,  0.0000)
  50 Cu    10.750397    6.043904   14.266863    ( 0.0000,  0.0000,  0.0000)
  51 Cu     8.125450    4.536072   16.403731    ( 0.0000,  0.0000,  0.0000)
  52 Cu     9.432612    5.289470   18.528114    ( 0.0000,  0.0000,  0.0000)
  53 Cu    10.748665    6.030225   20.646267    ( 0.0000,  0.0000,  0.0000)
  54 Cl     6.147134    2.664301   22.667231    ( 0.0000,  0.0000,  0.0000)
  55 Cl     4.853098    3.366848    8.014863    ( 0.0000,  0.0000,  0.0000)

Unit cell:
           periodic     x           y           z      points  spacing
  1. axis:    yes    7.851007    0.000000    0.000000    45     0.1511
  2. axis:    yes    3.925503    6.799171    0.000000    45     0.1511
  3. axis:    yes    0.000000    0.000000   30.683867   175     0.1753

  Lengths:   7.851007   7.851006  30.683867
  Angles:   90.000000  90.000000  60.000001

Effective grid spacing dv^(1/3) = 0.1666

     iter     time        total  log10-change:
                         energy  eigst   dens
iter:   1 21:41:44 -4162.357509  -3.73
iter:   2 21:42:26 -4162.345476  -3.99  -2.94
iter:   3 21:43:08 -4162.324374c -4.52  -3.04
iter:   4 21:43:50 -4162.318912c -5.75  -3.35
iter:   5 21:44:33 -4162.318872c -5.62  -3.81
iter:   6 21:45:27 -4162.318843c -6.40  -4.13c
iter:   7 21:46:25 -4162.318772c -6.55  -4.22c
iter:   8 21:47:09 -4162.318755c -7.57c -4.37c

Converged after 8 iterations.

Dipole moment: (-5.779412, 2.138347, -0.000649) |e|*Ang

Energy contributions relative to reference atoms: (reference = -2456268.298212)

Kinetic:       +390.681364
Potential:     -435.515674
External:        +0.000000
XC:            -4116.514752
Entropy (-ST):   -0.524417
Local:           -0.707485
Free energy:   -4162.580963
Extrapolated:  -4162.318755

Showing only first 2 kpts
 Kpt  Band  Eigenvalues  Occupancy
  0   302      0.05132    1.19830
  0   303      0.10999    0.90788
  0   304      0.22501    0.41668
  0   305      0.37901    0.10681

  1   302     -0.47963    1.99341
  1   303     -0.31095    1.96489
  1   304     -0.18074    1.87669
  1   305      0.11126    0.90159

Fermi level: 0.09151

No gap

Forces in eV/Ang:
  0 Cu   -0.00216   -0.00544   -0.00278
  1 Cu   -0.00788   -0.00411    0.00986
  2 Cu    0.00903    0.00142   -0.00793
  3 Cu    0.00811    0.00635   -0.01369
  4 Cu    0.00745   -0.00164   -0.00189
  5 Cu    0.00655   -0.00499   -0.00328
  6 Cu   -0.00476    0.01145    0.00717
  7 Cu   -0.00651    0.00556    0.00440
  8 Cu    0.00005    0.00565   -0.00060
  9 Cu   -0.00107   -0.00049    0.00120
 10 Cu   -0.00183   -0.00121   -0.00395
 11 Cu   -0.00048   -0.00416   -0.00008
 12 Cu   -0.00204    0.00096    0.00156
 13 Cu    0.00302    0.00163    0.00124
 14 Cu    0.00105    0.00618    0.00275
 15 Cu   -0.00494   -0.00238   -0.00143
 16 Cu   -0.00384   -0.00079    0.00743
 17 Cu    0.00127   -0.00003    0.00720
 18 Cu    0.00389   -0.00539    0.00273
 19 Cu    0.00323   -0.00363    0.00049
 20 Cu    0.00832    0.00265    0.00381
 21 Cu    0.00226   -0.00813   -0.00363
 22 Cu   -0.00393   -0.00621    0.00274
 23 Cu   -0.00124   -0.00065    0.01558
 24 Cu    0.00036    0.01366    0.00163
 25 Cu   -0.00077    0.00639   -0.00234
 26 Cu    0.01190   -0.00433   -0.00528
 27 Cu   -0.00913    0.00370   -0.00390
 28 Cu    0.00133   -0.00046    0.00147
 29 Cu    0.00113   -0.00239    0.00096
 30 Cu    0.00048   -0.00798    0.00295
 31 Cu    0.00149   -0.00237    0.00644
 32 Cu   -0.00312    0.00041    0.01120
 33 Cu    0.00647   -0.00093   -0.00467
 34 Cu    0.00198    0.00247    0.00020
 35 Cu    0.00002    0.00212    0.00572
 36 Cu    0.00106    0.00276   -0.01020
 37 Cu    0.01039   -0.00375   -0.01738
 38 Cu   -0.00083    0.00133   -0.00422
 39 Cu    0.00440    0.00284   -0.01026
 40 Cu   -0.00096   -0.00076   -0.00872
 41 Cu    0.00191    0.00219   -0.00028
 42 Cu    0.00034    0.00424    0.00327
 43 Cu   -0.00043    0.00323    0.00390
 44 Cu   -0.00346   -0.00037    0.00307
 45 Cu   -0.00351    0.00492    0.00806
 46 Cu   -0.00407    0.00105   -0.00002
 47 Cu   -0.00601   -0.00418    0.00773
 48 Cu    0.00380    0.01248   -0.00338
 49 Cu    0.00089    0.00078   -0.00495
 50 Cu   -0.00275   -0.00523    0.00039
 51 Cu   -0.00138   -0.00389    0.00168
 52 Cu   -0.00645    0.00032    0.00706
 53 Cu   -0.00433    0.00235    0.00680
 54 Cl   -0.00614   -0.00402   -0.01111
 55 Cl    0.00819    0.01450   -0.00055