User:   thorkong@node029.cluster
Date:   Sun Oct  9 06:20:27 2022
Arch:   x86_64
Pid:    26586
Python: 3.10.5
gpaw:   /groups/kemi/thorkong/miniconda3/envs/gpaw22/lib/python3.10/site-packages/gpaw
_gpaw:  /groups/kemi/thorkong/miniconda3/envs/gpaw22/lib/python3.10/site-packages/
        _gpaw.cpython-310-x86_64-linux-gnu.so
ase:    /groups/kemi/thorkong/miniconda3/envs/gpaw22/lib/python3.10/site-packages/ase (version 3.22.1)
numpy:  /groups/kemi/thorkong/miniconda3/envs/gpaw22/lib/python3.10/site-packages/numpy (version 1.23.0)
scipy:  /groups/kemi/thorkong/miniconda3/envs/gpaw22/lib/python3.10/site-packages/scipy (version 1.8.1)
units:  Angstrom and eV
cores: 32
OpenMP: True
OMP_NUM_THREADS: 1

Input parameters:
  basis: dzp
  kpts: [4 4 1]
  mode: {ecut: 600.0,
         name: pw}
  xc: BEEF-vdW

System changes: positions, numbers, cell, pbc, initial_charges, initial_magmoms

Initialize ...

Cu-setup:
  name: Copper
  id: f1c4d45d90492f1bbfdcb091e8418fdf
  Z: 29.0
  valence: 11
  core: 18
  charge: 0.0
  file: /groups/kemi/thorkong/miniconda3/envs/gpaw22/share/gpaw/Cu.PBE.gz
  compensation charges: gauss, rc=0.33, lmax=2
  cutoffs: 2.06(filt), 2.43(core),
  valence states:
                energy  radius
    4s(1.00)    -4.609   1.164
    4p(0.00)    -0.698   1.164
    3d(10.00)    -5.039   1.058
    *s          22.603   1.164
    *p          26.513   1.164
    *d          22.172   1.058

  LCAO basis set for Cu:
    Name: dzp
    File: /groups/kemi/thorkong/miniconda3/envs/gpaw22/share/gpaw/Cu.dzp.basis.gz
    Number of radial functions: 5
    Number of spherical harmonics: 15
      l=0, rc=8.9688 Bohr: 4s-sz confined orbital
      l=2, rc=5.1719 Bohr: 3d-sz confined orbital
      l=0, rc=5.3281 Bohr: 4s-dz split-valence wave
      l=2, rc=3.1406 Bohr: 3d-dz split-valence wave
      l=1, rc=8.9688 Bohr: p-type Gaussian polarization

Cl-setup:
  name: Chlorine
  id: 726897f06f34e53cf8e33b5885a02604
  Z: 17.0
  valence: 7
  core: 10
  charge: 0.0
  file: /groups/kemi/thorkong/miniconda3/envs/gpaw22/share/gpaw/Cl.PBE.gz
  compensation charges: gauss, rc=0.25, lmax=2
  cutoffs: 1.40(filt), 1.49(core),
  valence states:
                energy  radius
    3s(2.00)   -20.689   0.794
    3p(5.00)    -8.594   0.794
    *s           6.523   0.794
    *p          18.617   0.794
    *d           0.000   0.794

  LCAO basis set for Cl:
    Name: dzp
    File: /groups/kemi/thorkong/miniconda3/envs/gpaw22/share/gpaw/Cl.dzp.basis.gz
    Number of radial functions: 5
    Number of spherical harmonics: 13
      l=0, rc=5.1719 Bohr: 3s-sz confined orbital
      l=1, rc=6.2656 Bohr: 3p-sz confined orbital
      l=0, rc=2.8281 Bohr: 3s-dz split-valence wave
      l=1, rc=3.5156 Bohr: 3p-dz split-valence wave
      l=2, rc=6.2656 Bohr: d-type Gaussian polarization

Reference energy: -2606927.690960

Spin-paired calculation

Convergence criteria:
 Maximum [total energy] change in last 3 cyles: 0.0005 eV / electron
 Maximum integral of absolute [dens]ity change: 0.0001 electrons / valence electron
 Maximum integral of absolute [eigenst]ate change: 4e-08 eV^2 / valence electron
 Maximum number of scf [iter]ations: 333
 (Square brackets indicate name in SCF output, whereas a 'c' in
 the SCF output indicates the quantity has converged.)

Symmetries present (total): 1

  ( 1  0  0)
  ( 0  1  0)
  ( 0  0  1)

16 k-points: 4 x 4 x 1 Monkhorst-Pack grid
8 k-points in the irreducible part of the Brillouin zone
       k-points in crystal coordinates                weights
   0:     0.12500000   -0.37500000    0.00000000          2/16
   1:     0.12500000   -0.12500000    0.00000000          2/16
   2:     0.12500000    0.12500000    0.00000000          2/16
   3:     0.12500000    0.37500000    0.00000000          2/16
   4:     0.37500000   -0.37500000    0.00000000          2/16
   5:     0.37500000   -0.12500000    0.00000000          2/16
   6:     0.37500000    0.12500000    0.00000000          2/16
   7:     0.37500000    0.37500000    0.00000000          2/16

Wave functions: Plane wave expansion
  Cutoff energy: 600.000 eV
  Number of coefficients (min, max): 63070, 63184
  Pulay-stress correction: 0.000000 eV/Ang^3 (de/decut=0.000000)
  Using FFTW library
  ScaLapack parameters: grid=2x2, blocksize=64
  Wavefunction extrapolation:
    Improved wavefunction reuse through dual PAW basis

Occupation numbers: Fermi-Dirac: width=0.1000 eV

Eigensolver
   Davidson(niter=2)

Densities:
  Coarse grid: 45*48*175 grid
  Fine grid: 90*96*350 grid
  Total Charge: 0.000000

Density mixing:
  Method: separate
  Backend: pulay
  Linear mixing parameter: 0.05
  Mixing with 5 old densities
  Damping of long wave oscillations: 50

Hamiltonian:
  XC and Coulomb potentials evaluated on a 90*96*350 grid
  Using the BEEF-vdW Exchange-Correlation functional
  External potential:
    NoExternalPotential

XC parameters: BEEF-vdW with 2 nearest neighbor stencil

Total number of cores used: 32
Parallelization over k-points: 8
Domain decomposition: 1 x 1 x 4
                      2 x 2 x 8 (xc only)

Number of atoms: 68
Number of atomic orbitals: 992
Number of bands in calculation: 420
Number of valence electrons: 692
Bands to converge: occupied

... initialized

Initializing position-dependent things.

Density initialized from atomic densities
Creating initial wave functions:
  420 bands from LCAO basis set

                         Cl

                             Cl
             CCl
                    Cl
                          Cl
            Cu    Cu    Cu
          Cl    CCu   CCu   Cu

         Cu   CCu    Cu    Cu
            CCu   CCu   CCu

          Cu    CCu   CCu   Cu
         Cu   CCu   CCu    Cu

            CCu   CCu   CCu
          Cu    Cu    CCu   Cu

         Cu   CCu   CCu    Cu
             Cu    Cu    Cu
           Cl
                 Cl
                       CCl
        Cl

[...]

Positions:
   0 Cu     1.915259    1.811957    9.883280    ( 0.0000,  0.0000,  0.0000)
   1 Cu     0.598896    0.516338   11.825672    ( 0.0000,  0.0000,  0.0000)
   2 Cu     3.198646    0.525081   11.811870    ( 0.0000,  0.0000,  0.0000)
   3 Cu     1.891876    1.824877   13.700260    ( 0.0000,  0.0000,  0.0000)
   4 Cu     0.583485    0.534492   15.545603    ( 0.0000,  0.0000,  0.0000)
   5 Cu     3.190275    0.530177   15.552179    ( 0.0000,  0.0000,  0.0000)
   6 Cu     1.906630    1.853415   17.407589    ( 0.0000,  0.0000,  0.0000)
   7 Cu     0.572780    0.562735   19.219187    ( 0.0000,  0.0000,  0.0000)
   8 Cu     3.170336    0.557380   19.317564    ( 0.0000,  0.0000,  0.0000)
   9 Cu     0.587303    3.108318   11.857895    ( 0.0000,  0.0000,  0.0000)
  10 Cu     0.584557    3.155974   15.546361    ( 0.0000,  0.0000,  0.0000)
  11 Cu     0.601021    3.196680   19.234516    ( 0.0000,  0.0000,  0.0000)
  12 Cu     7.158673    1.796897   10.018929    ( 0.0000,  0.0000,  0.0000)
  13 Cu     5.812261    0.525766   11.868124    ( 0.0000,  0.0000,  0.0000)
  14 Cu     7.122735    1.834596   13.707458    ( 0.0000,  0.0000,  0.0000)
  15 Cu     5.800709    0.536854   15.545657    ( 0.0000,  0.0000,  0.0000)
  16 Cu     7.137516    1.862782   17.378064    ( 0.0000,  0.0000,  0.0000)
  17 Cu     5.843053    0.580140   19.190568    ( 0.0000,  0.0000,  0.0000)
  18 Cu     4.554424    1.843671    9.973019    ( 0.0000,  0.0000,  0.0000)
  19 Cu     4.496543    4.445988    9.980142    ( 0.0000,  0.0000,  0.0000)
  20 Cu     3.184561    3.120512   11.829326    ( 0.0000,  0.0000,  0.0000)
  21 Cu     5.805278    3.131165   11.844379    ( 0.0000,  0.0000,  0.0000)
  22 Cu     4.494946    1.836031   13.696282    ( 0.0000,  0.0000,  0.0000)
  23 Cu     4.496310    4.447814   13.695899    ( 0.0000,  0.0000,  0.0000)
  24 Cu     3.194046    3.157679   15.543291    ( 0.0000,  0.0000,  0.0000)
  25 Cu     5.804893    3.154738   15.547755    ( 0.0000,  0.0000,  0.0000)
  26 Cu     4.488296    1.853366   17.400760    ( 0.0000,  0.0000,  0.0000)
  27 Cu     4.506400    4.485187   17.408475    ( 0.0000,  0.0000,  0.0000)
  28 Cu     3.193409    3.160998   19.258736    ( 0.0000,  0.0000,  0.0000)
  29 Cu     5.858085    3.169182   19.194286    ( 0.0000,  0.0000,  0.0000)
  30 Cu     1.833036    4.436102   10.042860    ( 0.0000,  0.0000,  0.0000)
  31 Cu     1.848613    7.025561   10.048771    ( 0.0000,  0.0000,  0.0000)
  32 Cu     0.553486    5.741821   11.860378    ( 0.0000,  0.0000,  0.0000)
  33 Cu     3.202059    5.752167   11.838746    ( 0.0000,  0.0000,  0.0000)
  34 Cu     1.885605    4.450651   13.690902    ( 0.0000,  0.0000,  0.0000)
  35 Cu     1.890095    7.068785   13.693595    ( 0.0000,  0.0000,  0.0000)
  36 Cu     0.567828    5.770633   15.531001    ( 0.0000,  0.0000,  0.0000)
  37 Cu     3.195845    5.769640   15.542958    ( 0.0000,  0.0000,  0.0000)
  38 Cu     1.884264    4.473289   17.393727    ( 0.0000,  0.0000,  0.0000)
  39 Cu     1.878009    7.079508   17.370554    ( 0.0000,  0.0000,  0.0000)
  40 Cu     0.532754    5.805347   19.221171    ( 0.0000,  0.0000,  0.0000)
  41 Cu     3.135648    5.760969   19.261177    ( 0.0000,  0.0000,  0.0000)
  42 Cu     7.088273    4.405744   10.005609    ( 0.0000,  0.0000,  0.0000)
  43 Cu     7.118811    7.041645   10.020291    ( 0.0000,  0.0000,  0.0000)
  44 Cu     5.783929    5.751880   11.831860    ( 0.0000,  0.0000,  0.0000)
  45 Cu     7.105858    4.448710   13.691605    ( 0.0000,  0.0000,  0.0000)
  46 Cu     7.107683    7.070722   13.693098    ( 0.0000,  0.0000,  0.0000)
  47 Cu     5.799535    5.780808   15.538646    ( 0.0000,  0.0000,  0.0000)
  48 Cu     7.104102    4.496441   17.380297    ( 0.0000,  0.0000,  0.0000)
  49 Cu     7.092544    7.089289   17.414640    ( 0.0000,  0.0000,  0.0000)
  50 Cu     5.775387    5.792866   19.353930    ( 0.0000,  0.0000,  0.0000)
  51 Cu     4.520335    7.049803    9.924058    ( 0.0000,  0.0000,  0.0000)
  52 Cu     4.501041    7.075368   13.686949    ( 0.0000,  0.0000,  0.0000)
  53 Cu     4.492979    7.081517   17.427115    ( 0.0000,  0.0000,  0.0000)
  54 Cl     4.642738    3.731524   21.628230    ( 0.0000,  0.0000,  0.0000)
  55 Cl     3.050880    3.855057    7.612030    ( 0.0000,  0.0000,  0.0000)
  56 Cl     1.402586   -0.830588   21.651828    ( 0.0000,  0.0000,  0.0000)
  57 Cl     6.282328    8.416397    7.584298    ( 0.0000,  0.0000,  0.0000)
  58 Cl     1.366226    4.692131   21.695506    ( 0.0000,  0.0000,  0.0000)
  59 Cl     6.329001    2.889285    7.542960    ( 0.0000,  0.0000,  0.0000)
  60 Cl     0.313029   -0.043217    7.643657    ( 0.0000,  0.0000,  0.0000)
  61 Cl     7.382773    7.619836   21.587063    ( 0.0000,  0.0000,  0.0000)
  62 Cl     7.391664    1.938616   21.607044    ( 0.0000,  0.0000,  0.0000)
  63 Cl     0.300132    5.649574    7.635008    ( 0.0000,  0.0000,  0.0000)
  64 Cl     5.111949    5.785205    6.019792    ( 0.0000,  0.0000,  0.0000)
  65 Cl     2.593609    1.779521   23.217673    ( 0.0000,  0.0000,  0.0000)
  66 Cl     6.270660    5.550491   23.691726    ( 0.0000,  0.0000,  0.0000)
  67 Cl     1.409433    2.050343    5.551330    ( 0.0000,  0.0000,  0.0000)

Unit cell:
           periodic     x           y           z      points  spacing
[...]
iter:  13 15:07:46 -4598.753867c -6.45  -4.06c
iter:  14 15:08:43 -4598.753731c -6.22  -4.23c
iter:  15 15:09:42 -4598.753723c -6.99  -4.34c
iter:  16 15:10:44 -4598.753699c -7.27  -4.37c
iter:  17 15:11:48 -4598.753733c -6.87  -4.50c
iter:  18 15:12:57 -4598.753741c -7.30  -4.53c
iter:  19 15:14:05 -4598.753705c -6.97  -4.66c
iter:  20 15:15:13 -4598.753700c -7.41c -4.85c

[...]

                      ClCl

                             Cl
              Cl
            Cu    Cl    Cu
                         Cl
          Cl    Cu    CCu   Cu
              CCu   Cu     Cu
        Cu           Cu
            Cu    CCu   CCu
          Cu    Cu    Cu    Cu
                       Cu
        Cu    CCu    Cu    Cu
            Cu    Cu     Cu
             Cu    Cu    Cu
          Cu    Cu    CCu    Cu
                     Cu    Cu
         Cu   CCu    Cu
           ClCu    Cu    Cu
                       Cl

[...]

                             Cl
              Cl
                  Cl    Cu
            Cu            Cl
          Cl    Cu    CCu   Cu
              CCu   Cu     Cu
        Cu           Cu
            Cu    CCu   CCu
                Cu    Cu     Cu
          Cu    Cu     Cu
        Cu    CCu    Cu    Cu
            Cu    Cu     Cu
             Cu    Cu    Cu
          Cu    Cu    CCu    Cu
                     Cu    Cu
         Cu   CCu    Cu
           ClCu    Cu    Cu
                       Cl

[...]

                             Cl
              Cl
                  Cl    Cu
            Cu            Cl
          Cl    Cu    CCu   Cu
               Cu   Cu     Cu
        Cu    Cu     Cu
            Cu    CCu   CCu
                Cu    Cu     Cu
          Cu    Cu     Cu
        Cu    CCu    Cu    Cu
            Cu    Cu     Cu
            Cu     Cu    Cu
          Cu    Cu    CCu    Cu
                     Cu    Cu
         Cu   CCu    Cu
           CCu     Cu    Cu
                       Cl

[...]

                             Cl
              Cl
                  Cl    Cu
            Cu            Cl
          Cl    Cu    CCu   Cu
               Cu    Cu    Cu
        Cu    Cu     Cu
            Cu    CCu   CCu
                Cu    Cu     Cu
          Cu    Cu     Cu
        Cu    CCu    Cu    Cu
            Cu    Cu     Cu
            Cu     Cu    Cu
          Cu    Cu    CCu    Cu
                     Cu    Cu
        Cu    CCu    Cu
           CCu     Cu    Cu
                       Cl

[...]

                             Cl
              Cl
                  Cl    Cu
            Cu            Cl
          Cl    Cu    CCu   Cu
               Cu    Cu    Cu
        Cu    Cu     Cu
            Cu    CCu   CCu
                Cu    Cu     Cu
          Cu    Cu     Cu
        Cu    CCu   CCu    Cu
            Cu    Cu     Cu
            Cu     Cu    Cu
          Cu    Cu    CCu    Cu
                     Cu    Cu
        Cu    CCu    Cu
           CCu     Cu    Cu
                       Cl

[...]

                             Cl
              Cl
                  Cu    Cu
            Cu    Cl      Cl
          Cl    Cu    CCu   Cu
               Cu    Cu    Cu
        Cu    Cu     Cu
            Cu    CCu   CCu
                Cu    Cu     Cu
          Cu    Cu     Cu
        Cu    CCu   CCu    Cu
            Cu    Cu     Cu
            Cu     Cu    Cu
          Cu    Cu    CCu    Cu
                     Cu    Cu
        Cu    CCu    Cu
           CCu     Cu    Cu
                       Cl

[...]

                             Cl
              Cl
                  Cu    Cu
            Cu    Cl      Cl
          Cl    Cu    CCu   Cu
               Cu    Cu
        Cu    Cu     Cu    Cu
            Cu    CCu   CCu
                Cu    Cu     Cu
          Cu    Cu     Cu
        Cu    CCu   CCu    Cu
            Cu    Cu     Cu
            Cu     Cu    Cu
          Cu    Cu    CCu    Cu
                     Cu    Cl
         Cu   CCu    Cu    Cu
           CCu     Cu    Cu
                       Cl

[...]

                             Cl
              Cl
                         Cu
            Cu    Cl      Cl
          Cl    Cu    CCu    Cu
               Cu    Cu
        Cu    Cu     Cu    Cu
            Cu    CCu    Cu
                Cu    Cu     Cu
          Cu     Cu    Cu
        Cu    CCu   CCu    Cu
                         Cu
            Cu    CCu    Cu
          Cu    Cu    CCu    Cu
                     Cu    Cl
        Cu    CCu    Cu    Cu
           CCu     Cu    Cu
                       Cl

[...]

                             Cl
              Cl
                         Cu
            Cu    Cl      Cl
          Cl    CCu   CCu    Cu

        Cu    CCu    Cu    Cu
            Cu    CCu    Cu
                Cu    Cu
          Cu     Cu    Cu    Cu
        Cu    CCu   CCu    Cu

            CCu   CCu    Cu
          Cu    Cu    CCu    Cu
                           Cl
        Cu    CCu    Cu    Cu
           CCu     Cu    Cu
                       Cl

[...]

                             Cl
              Cl
                         Cu
            Cu    Cl      Cl
          Cl    Cu    CCu    Cu

        Cu    CCu    Cu    Cu
            Cu    CCu    Cu
                Cu    Cu     Cu
          Cu     Cu    Cu
        Cu    CCu   CCu    Cu

[...]

        Cu    CCu    Cu    Cu
            Cu    CCu    Cu
                Cu    Cu     Cu
          Cu     Cu    Cu
        Cu    CCu   CCu    Cu

[...]

        Cu    CCu    Cu    Cu
            Cu    CCu    Cu
                Cu
          Cu     Cu   CCu    Cu
        Cu    CCu   CCu    Cu

[...]

                             Cl
              Cl
                         Cu
            Cu    Cl      Cl
          Cl    Cu    CCu    Cu

[...]

            CCu   CCu    Cu
          Cu    Cu    CCu    Cu
                           Cl
        Cu    CCu    Cu    Cu
           CCu     Cu    Cu
                       Cl

[...]

                      ClCl

[...]

            Cu    Cl     CCl
          Cl    CCu   CCu    Cu

[...]

            CCu   CCu    Cu
          Cu    Cu    CCu    Cu
                           Cl
        Cu    CCu   CCu    Cu
           CCu     Cu    Cu
                       Cl

[...]

                       Cll

[...]

            Cu    CCu    Cu
          Cu    Cu    CCu    Cu
                           Cl
        Cu    CCu   CCu    Cu
           CCu     Cu    Cu
                       Cl

[...]

            Cu    CCu    Cu
          Cu    Cu    CCu    Cu

        Cu    CCu   CCu    Cu
           CCu     Cu    Cu

[...]

System changes: positions

Initializing position-dependent things.

Density initialized from wave functions

                       Cll

[...]

            Cu    Cl     CCl
          Cl    CCu   CCu    Cu

        Cu    CCu    Cu    Cu
            Cu    CCu    Cu

          Cu    CCu   CCu    Cu
        Cu    CCu   CCu    Cu

            Cu    CCu    Cu
          Cu    Cu    CCu    Cu
                           Cl
        Cu    CCu   CCu    Cu
           CCu     Cu    Cu
                       Cl

[...]

              Cl

Positions:
   0 Cu     1.851058    1.863587    9.944926    ( 0.0000,  0.0000,  0.0000)
   1 Cu     0.563757    0.517628   11.831091    ( 0.0000,  0.0000,  0.0000)
   2 Cu     3.162674    0.518711   11.818951    ( 0.0000,  0.0000,  0.0000)
   3 Cu     1.882526    1.837825   13.704731    ( 0.0000,  0.0000,  0.0000)
   4 Cu     0.575755    0.528512   15.536325    ( 0.0000,  0.0000,  0.0000)
   5 Cu     3.200102    0.522182   15.543805    ( 0.0000,  0.0000,  0.0000)
   6 Cu     1.888994    1.819371   17.387405    ( 0.0000,  0.0000,  0.0000)
   7 Cu     0.573711    0.527974   19.238306    ( 0.0000,  0.0000,  0.0000)
   8 Cu     3.174938    0.564899   19.342902    ( 0.0000,  0.0000,  0.0000)
   9 Cu     0.591169    3.162185   11.836516    ( 0.0000,  0.0000,  0.0000)
  10 Cu     0.574049    3.144443   15.551854    ( 0.0000,  0.0000,  0.0000)
  11 Cu     0.574724    3.137422   19.215588    ( 0.0000,  0.0000,  0.0000)
  12 Cu     7.072049    1.866326   10.060269    ( 0.0000,  0.0000,  0.0000)
  13 Cu     5.804297    0.527490   11.856488    ( 0.0000,  0.0000,  0.0000)
  14 Cu     7.124439    1.846030   13.685156    ( 0.0000,  0.0000,  0.0000)
  15 Cu     5.811438    0.543532   15.528020    ( 0.0000,  0.0000,  0.0000)
  16 Cu     7.110913    1.821301   17.404660    ( 0.0000,  0.0000,  0.0000)
  17 Cu     5.802834    0.484555   19.321395    ( 0.0000,  0.0000,  0.0000)
  18 Cu     4.454740    1.857357    9.996888    ( 0.0000,  0.0000,  0.0000)
  19 Cu     4.486217    4.433676   10.032163    ( 0.0000,  0.0000,  0.0000)
  20 Cu     3.147652    3.151066   11.814933    ( 0.0000,  0.0000,  0.0000)
  21 Cu     5.785914    3.153344   11.862557    ( 0.0000,  0.0000,  0.0000)
  22 Cu     4.479135    1.841765   13.679904    ( 0.0000,  0.0000,  0.0000)
  23 Cu     4.490916    4.458830   13.693779    ( 0.0000,  0.0000,  0.0000)
  24 Cu     3.203734    3.147518   15.547165    ( 0.0000,  0.0000,  0.0000)
  25 Cu     5.810793    3.140921   15.529247    ( 0.0000,  0.0000,  0.0000)
  26 Cu     4.505378    1.821582   17.406906    ( 0.0000,  0.0000,  0.0000)
  27 Cu     4.544991    4.456332   17.424198    ( 0.0000,  0.0000,  0.0000)
  28 Cu     3.204638    3.171569   19.200437    ( 0.0000,  0.0000,  0.0000)
  29 Cu     5.785889    3.153022   19.305477    ( 0.0000,  0.0000,  0.0000)
  30 Cu     1.907529    4.454944    9.934111    ( 0.0000,  0.0000,  0.0000)
  31 Cu     1.896608    7.124163    9.914315    ( 0.0000,  0.0000,  0.0000)
  32 Cu     0.586897    5.785996   11.833134    ( 0.0000,  0.0000,  0.0000)
  33 Cu     3.190749    5.783465   11.830010    ( 0.0000,  0.0000,  0.0000)
  34 Cu     1.884622    4.463829   13.710508    ( 0.0000,  0.0000,  0.0000)
  35 Cu     1.883136    7.061111   13.710821    ( 0.0000,  0.0000,  0.0000)
  36 Cu     0.568875    5.759596   15.554148    ( 0.0000,  0.0000,  0.0000)
  37 Cu     3.214028    5.765612   15.559669    ( 0.0000,  0.0000,  0.0000)
  38 Cu     1.904358    4.454885   17.375817    ( 0.0000,  0.0000,  0.0000)
  39 Cu     1.887379    7.079281   17.384190    ( 0.0000,  0.0000,  0.0000)
  40 Cu     0.615845    5.739733   19.184768    ( 0.0000,  0.0000,  0.0000)
  41 Cu     3.233127    5.747528   19.241085    ( 0.0000,  0.0000,  0.0000)
  42 Cu     7.118226    4.468331   10.021543    ( 0.0000,  0.0000,  0.0000)
  43 Cu     7.125436    7.078733   10.000351    ( 0.0000,  0.0000,  0.0000)
  44 Cu     5.805826    5.784808   11.850326    ( 0.0000,  0.0000,  0.0000)
  45 Cu     7.120482    4.461875   13.688239    ( 0.0000,  0.0000,  0.0000)
  46 Cu     7.118948    7.076459   13.702752    ( 0.0000,  0.0000,  0.0000)
  47 Cu     5.810806    5.767458   15.533826    ( 0.0000,  0.0000,  0.0000)
  48 Cu     7.099313    4.446378   17.404340    ( 0.0000,  0.0000,  0.0000)
  49 Cu     7.130460    7.088074   17.409324    ( 0.0000,  0.0000,  0.0000)
  50 Cu     5.838418    5.747216   19.295856    ( 0.0000,  0.0000,  0.0000)
  51 Cu     4.524668    7.042918    9.897282    ( 0.0000,  0.0000,  0.0000)
  52 Cu     4.494972    7.082839   13.694638    ( 0.0000,  0.0000,  0.0000)
  53 Cu     4.530964    7.086744   17.420118    ( 0.0000,  0.0000,  0.0000)
  54 Cl     5.881622    4.617108   23.376664    ( 0.0000,  0.0000,  0.0000)
  55 Cl     2.045029    2.994221    5.769271    ( 0.0000,  0.0000,  0.0000)
  56 Cl     1.467757   -0.791900   21.009066    ( 0.0000,  0.0000,  0.0000)
  57 Cl     6.222236    8.398199    8.224541    ( 0.0000,  0.0000,  0.0000)
  58 Cl     1.807951    4.437699   20.871878    ( 0.0000,  0.0000,  0.0000)
  59 Cl     5.878506    3.166082    8.367815    ( 0.0000,  0.0000,  0.0000)
  60 Cl     0.353096    0.887345    8.260644    ( 0.0000,  0.0000,  0.0000)
  61 Cl     7.338856    6.728086   20.984354    ( 0.0000,  0.0000,  0.0000)
  62 Cl     7.216382    1.910782   20.913050    ( 0.0000,  0.0000,  0.0000)
  63 Cl     0.479900    5.689038    8.322713    ( 0.0000,  0.0000,  0.0000)
  64 Cl     3.729514    5.578850    8.168252    ( 0.0000,  0.0000,  0.0000)
  65 Cl     3.970894    2.039074   21.065145    ( 0.0000,  0.0000,  0.0000)
  66 Cl     5.693458    2.917443   24.444106    ( 0.0000,  0.0000,  0.0000)
  67 Cl     1.808799    4.699680    4.724046    ( 0.0000,  0.0000,  0.0000)

Unit cell:
           periodic     x           y           z      points  spacing
  1. axis:    yes    7.851007    0.000000    0.000000    45     0.1655
  2. axis:    yes    2.617002    7.851007    0.000000    48     0.1636
  3. axis:    yes    0.000000    0.000000   30.683867   175     0.1753

  Lengths:   7.851007   8.275688  30.683867
  Angles:   90.000000  90.000000  71.565053

Effective grid spacing dv^(1/3) = 0.1710

     iter     time        total  log10-change:
                         energy  eigst   dens
iter:   1 19:02:00 -4598.901634  -3.05
iter:   2 19:02:56 -4598.878379  -4.09  -2.96
iter:   3 19:03:52 -4598.872084c -4.77  -3.11
iter:   4 19:04:49 -4598.868048c -5.10  -3.21
iter:   5 19:05:45 -4598.865663c -4.66  -3.33
iter:   6 19:06:50 -4598.865161c -5.11  -3.65
iter:   7 19:07:47 -4598.865752c -5.58  -3.81
iter:   8 19:08:52 -4598.864953c -5.70  -3.94
iter:   9 19:09:55 -4598.864840c -6.13  -4.20c
iter:  10 19:10:52 -4598.864845c -6.65  -4.29c
iter:  11 19:12:13 -4598.864831c -6.76  -4.32c
iter:  12 19:13:31 -4598.864820c -7.48c -4.50c

Converged after 12 iterations.

Dipole moment: (-49.121738, -32.944073, -0.009913) |e|*Ang

Energy contributions relative to reference atoms: (reference = -2606927.690960)

Kinetic:       +529.870505
Potential:     -555.416516
External:        +0.000000
XC:            -4572.247311
Entropy (-ST):   -0.547228
Local:           -0.797885
Free energy:   -4599.138434
Extrapolated:  -4598.864820

Showing only first 2 kpts
 Kpt  Band  Eigenvalues  Occupancy
  0   344     -0.21672    1.93945
  0   345     -0.10912    1.83221
  0   346     -0.05672    1.73213
  0   347      0.15633    0.86882

  1   344     -0.01616    1.62336
  1   345      0.05074    1.37651
  1   346      0.09016    1.19629
  1   347      0.29242    0.32908

Fermi level: 0.12994

No gap

Forces in eV/Ang:
  0 Cu   -0.00478   -0.00520   -0.00562
  1 Cu   -0.00119   -0.00311    0.00090
  2 Cu    0.00970    0.00251    0.00256
  3 Cu   -0.00422    0.00221    0.00505
  4 Cu   -0.00569    0.00116    0.00914
  5 Cu   -0.00689    0.00010   -0.00065
  6 Cu   -0.00206    0.00569    0.00217
  7 Cu   -0.00881   -0.00658    0.00116
  8 Cu   -0.00523    0.00101    0.00552
  9 Cu    0.00491    0.00045   -0.00010
 10 Cu   -0.00831   -0.00097   -0.00380
 11 Cu   -0.00679   -0.00500    0.00486
 12 Cu    0.00508   -0.00461   -0.00139
 13 Cu    0.00691   -0.00153   -0.00364
 14 Cu   -0.00228   -0.00473   -0.00515
 15 Cu   -0.00279    0.00100   -0.00373
 16 Cu   -0.00399    0.00301   -0.00299
 17 Cu   -0.01056   -0.00088   -0.00240
 18 Cu    0.00034   -0.01057   -0.00444
 19 Cu    0.00730   -0.00273    0.00005
 20 Cu    0.00237   -0.01041    0.00539
 21 Cu    0.01219   -0.00759    0.01029
 22 Cu   -0.00313   -0.00459    0.00442
 23 Cu    0.00167   -0.00598   -0.00815
 24 Cu   -0.00471    0.00520    0.00370
 25 Cu   -0.00484    0.00195   -0.00791
 26 Cu   -0.00423   -0.00248   -0.00261
 27 Cu   -0.00365    0.00769   -0.00660
 28 Cu   -0.00912    0.01131    0.00088
 29 Cu   -0.01320    0.00646   -0.00712
 30 Cu    0.00770    0.00019    0.00297
 31 Cu    0.00882   -0.00242   -0.00133
 32 Cu   -0.00537   -0.00521    0.00635
 33 Cu    0.00475    0.00558    0.00800
 34 Cu    0.00073    0.00333    0.00736
 35 Cu    0.00373    0.00153    0.00076
 36 Cu    0.00167    0.00706    0.00214
 37 Cu    0.00200   -0.00010   -0.00296
 38 Cu   -0.00965    0.00371   -0.00368
 39 Cu   -0.00154   -0.00175    0.00335
 40 Cu   -0.00147    0.00589   -0.00825
 41 Cu    0.00224    0.01104    0.00505
 42 Cu    0.00493    0.00820   -0.00584
 43 Cu    0.00635    0.00728   -0.00963
 44 Cu    0.00597   -0.00024   -0.00149
 45 Cu    0.00648    0.00035   -0.00177
 46 Cu    0.00340    0.00136   -0.01140
 47 Cu    0.00571    0.00248   -0.00232
 48 Cu    0.00043   -0.00456    0.00244
 49 Cu   -0.00209    0.00323    0.00168
 50 Cu    0.00064   -0.00409    0.00383
 51 Cu    0.00032   -0.00262   -0.01110
 52 Cu    0.00398    0.00093    0.00012
 53 Cu   -0.00863   -0.00027   -0.00003
 54 Cl    0.00189   -0.01733    0.00309
 55 Cl    0.00499   -0.02178    0.01679
 56 Cl   -0.00228   -0.00757   -0.01271
 57 Cl    0.01563    0.00333    0.01124
 58 Cl   -0.00852   -0.00514    0.00085
 59 Cl    0.01026    0.01013   -0.00270
 60 Cl    0.00416    0.01475    0.00556
 61 Cl   -0.00411   -0.01077    0.00264
 62 Cl   -0.00137    0.00165   -0.01153
 63 Cl    0.00570   -0.00755    0.00905
 64 Cl    0.01017    0.00172   -0.00283
 65 Cl   -0.01509   -0.00759    0.00478
 66 Cl   -0.01107   -0.01492    0.00618
 67 Cl    0.00789    0.01137   -0.00414