User:   thorkong@node024.cluster
Date:   Fri Oct 14 12:31:31 2022
Arch:   x86_64
Pid:    109894
Python: 3.10.5
gpaw:   /groups/kemi/thorkong/miniconda3/envs/gpaw22/lib/python3.10/site-packages/gpaw
_gpaw:  /groups/kemi/thorkong/miniconda3/envs/gpaw22/lib/python3.10/site-packages/
        _gpaw.cpython-310-x86_64-linux-gnu.so
ase:    /groups/kemi/thorkong/miniconda3/envs/gpaw22/lib/python3.10/site-packages/ase (version 3.22.1)
numpy:  /groups/kemi/thorkong/miniconda3/envs/gpaw22/lib/python3.10/site-packages/numpy (version 1.23.0)
scipy:  /groups/kemi/thorkong/miniconda3/envs/gpaw22/lib/python3.10/site-packages/scipy (version 1.8.1)
units:  Angstrom and eV
cores: 32
OpenMP: True
OMP_NUM_THREADS: 1

Input parameters:
  basis: dzp
  kpts: [4 4 1]
  mode: {ecut: 600.0,
         name: pw}
  xc: BEEF-vdW

System changes: positions, numbers, cell, pbc, initial_charges, initial_magmoms

Initialize ...

Cu-setup:
  name: Copper
  id: f1c4d45d90492f1bbfdcb091e8418fdf
  Z: 29.0
  valence: 11
  core: 18
  charge: 0.0
  file: /groups/kemi/thorkong/miniconda3/envs/gpaw22/share/gpaw/Cu.PBE.gz
  compensation charges: gauss, rc=0.33, lmax=2
  cutoffs: 2.06(filt), 2.43(core),
  valence states:
                energy  radius
    4s(1.00)    -4.609   1.164
    4p(0.00)    -0.698   1.164
    3d(10.00)    -5.039   1.058
    *s          22.603   1.164
    *p          26.513   1.164
    *d          22.172   1.058

  LCAO basis set for Cu:
    Name: dzp
    File: /groups/kemi/thorkong/miniconda3/envs/gpaw22/share/gpaw/Cu.dzp.basis.gz
    Number of radial functions: 5
    Number of spherical harmonics: 15
      l=0, rc=8.9688 Bohr: 4s-sz confined orbital
      l=2, rc=5.1719 Bohr: 3d-sz confined orbital
      l=0, rc=5.3281 Bohr: 4s-dz split-valence wave
      l=2, rc=3.1406 Bohr: 3d-dz split-valence wave
      l=1, rc=8.9688 Bohr: p-type Gaussian polarization

Cl-setup:
  name: Chlorine
  id: 726897f06f34e53cf8e33b5885a02604
  Z: 17.0
  valence: 7
  core: 10
  charge: 0.0
  file: /groups/kemi/thorkong/miniconda3/envs/gpaw22/share/gpaw/Cl.PBE.gz
  compensation charges: gauss, rc=0.25, lmax=2
  cutoffs: 1.40(filt), 1.49(core),
  valence states:
                energy  radius
    3s(2.00)   -20.689   0.794
    3p(5.00)    -8.594   0.794
    *s           6.523   0.794
    *p          18.617   0.794
    *d           0.000   0.794

  LCAO basis set for Cl:
    Name: dzp
    File: /groups/kemi/thorkong/miniconda3/envs/gpaw22/share/gpaw/Cl.dzp.basis.gz
    Number of radial functions: 5
    Number of spherical harmonics: 13
      l=0, rc=5.1719 Bohr: 3s-sz confined orbital
      l=1, rc=6.2656 Bohr: 3p-sz confined orbital
      l=0, rc=2.8281 Bohr: 3s-dz split-valence wave
      l=1, rc=3.5156 Bohr: 3p-dz split-valence wave
      l=2, rc=6.2656 Bohr: d-type Gaussian polarization

Reference energy: -3316874.228935

Spin-paired calculation

Convergence criteria:
 Maximum [total energy] change in last 3 cyles: 0.0005 eV / electron
 Maximum integral of absolute [dens]ity change: 0.0001 electrons / valence electron
 Maximum integral of absolute [eigenst]ate change: 4e-08 eV^2 / valence electron
 Maximum number of scf [iter]ations: 333
 (Square brackets indicate name in SCF output, whereas a 'c' in
 the SCF output indicates the quantity has converged.)

Symmetries present (total): 1

  ( 1  0  0)
  ( 0  1  0)
  ( 0  0  1)

16 k-points: 4 x 4 x 1 Monkhorst-Pack grid
8 k-points in the irreducible part of the Brillouin zone
       k-points in crystal coordinates                weights
   0:     0.12500000   -0.37500000    0.00000000          2/16
   1:     0.12500000   -0.12500000    0.00000000          2/16
   2:     0.12500000    0.12500000    0.00000000          2/16
   3:     0.12500000    0.37500000    0.00000000          2/16
   4:     0.37500000   -0.37500000    0.00000000          2/16
   5:     0.37500000   -0.12500000    0.00000000          2/16
   6:     0.37500000    0.12500000    0.00000000          2/16
   7:     0.37500000    0.37500000    0.00000000          2/16

Wave functions: Plane wave expansion
  Cutoff energy: 600.000 eV
  Number of coefficients (min, max): 66642, 66743
  Pulay-stress correction: 0.000000 eV/Ang^3 (de/decut=0.000000)
  Using FFTW library
  ScaLapack parameters: grid=2x2, blocksize=64
  Wavefunction extrapolation:
    Improved wavefunction reuse through dual PAW basis

Occupation numbers: Fermi-Dirac: width=0.1000 eV

Eigensolver
   Davidson(niter=2)

Densities:
  Coarse grid: 45*42*196 grid
  Fine grid: 90*84*392 grid
  Total Charge: 0.000000

Density mixing:
  Method: separate
  Backend: pulay
  Linear mixing parameter: 0.05
  Mixing with 5 old densities
  Damping of long wave oscillations: 50

Hamiltonian:
  XC and Coulomb potentials evaluated on a 90*84*392 grid
  Using the BEEF-vdW Exchange-Correlation functional
  External potential:
    NoExternalPotential

XC parameters: BEEF-vdW with 2 nearest neighbor stencil

Total number of cores used: 32
Parallelization over k-points: 8
Domain decomposition: 1 x 1 x 4
                      2 x 2 x 8 (xc only)

Number of atoms: 78
Number of atomic orbitals: 1158
Number of bands in calculation: 505
Number of valence electrons: 834
Bands to converge: occupied

... initialized

Initializing position-dependent things.

Density initialized from atomic densities
Creating initial wave functions:
  505 bands from LCAO basis set

 |    |     Cl    Cl     |
 |    |  Cl  CuCu    Cu  |
 |  CuCu   CCu   CuCu    |
 |    |  Cu    Cu    Cu  |
 |Cu  Cu    CuCu   Cu    |
 |  Cu|  CCu   CuCu  Cu  |
 |Cu  CuCu  CuCu   Cu    |
 |  Cu|  CuCuCuCuCu  Cu  |
 |Cu  | Cu    Cu         |
 |  CuCu CuCCu CuCuCuCu  |
 |Cu  |       Cu         |
 |  CuCu CCuCu CuCuCuCu  |
 |    |Cu    Cu    Cu    |
 |CuCuCuCuCuCuCuCCuCu    |
 |    |       Cl         |

Positions:
   0 Cu     2.893249   -0.009013   10.079935    ( 0.0000,  0.0000,  0.0000)
   1 Cu     1.591035    1.857611   11.262661    ( 0.0000,  0.0000,  0.0000)
   2 Cu     4.201834    1.841809   11.295676    ( 0.0000,  0.0000,  0.0000)
   3 Cu     0.277666   -0.009469   10.084997    ( 0.0000,  0.0000,  0.0000)
   4 Cu     0.277849    0.003618   12.626767    ( 0.0000,  0.0000,  0.0000)
   5 Cu     4.202668    1.862513   13.923708    ( 0.0000,  0.0000,  0.0000)
   6 Cu     1.586463    1.852775   13.921192    ( 0.0000,  0.0000,  0.0000)
   7 Cu     2.889400    0.003545   12.629227    ( 0.0000,  0.0000,  0.0000)
   8 Cu     2.895466   -0.000271   15.229461    ( 0.0000,  0.0000,  0.0000)
   9 Cu     1.588247    1.851385   16.545856    ( 0.0000,  0.0000,  0.0000)
  10 Cu     4.201591    1.852496   16.545727    ( 0.0000,  0.0000,  0.0000)
  11 Cu     0.277809    0.001734   15.236454    ( 0.0000,  0.0000,  0.0000)
  12 Cu     0.278211    0.000883   17.850829    ( 0.0000,  0.0000,  0.0000)
  13 Cu     4.204728    1.850775   19.171325    ( 0.0000,  0.0000,  0.0000)
  14 Cu     1.584458    1.852521   19.171085    ( 0.0000,  0.0000,  0.0000)
  15 Cu     2.894601    0.002325   17.849783    ( 0.0000,  0.0000,  0.0000)
  16 Cu     2.894236    0.012687   20.468701    ( 0.0000,  0.0000,  0.0000)
  17 Cu     1.584204    1.855644   21.820509    ( 0.0000,  0.0000,  0.0000)
  18 Cu     4.205662    1.855442   21.821840    ( 0.0000,  0.0000,  0.0000)
  19 Cu     0.277320    0.003097   20.469516    ( 0.0000,  0.0000,  0.0000)
  20 Cu     0.282256    0.008318   23.110120    ( 0.0000,  0.0000,  0.0000)
  21 Cu     4.232873    1.841925   24.430560    ( 0.0000,  0.0000,  0.0000)
  22 Cu     1.555398    1.844008   24.424642    ( 0.0000,  0.0000,  0.0000)
  23 Cu     2.895568   -0.008221   23.079835    ( 0.0000,  0.0000,  0.0000)
  24 Cu     2.864475    3.710782    9.962758    ( 0.0000,  0.0000,  0.0000)
  25 Cu     1.591976    5.541691   11.280182    ( 0.0000,  0.0000,  0.0000)
  26 Cu     4.202041    5.558211   11.310184    ( 0.0000,  0.0000,  0.0000)
  27 Cu     0.277822    3.707697   10.093271    ( 0.0000,  0.0000,  0.0000)
  28 Cu     0.277595    3.695861   12.630222    ( 0.0000,  0.0000,  0.0000)
  29 Cu     4.203472    5.539712   13.923294    ( 0.0000,  0.0000,  0.0000)
  30 Cu     1.585302    5.549330   13.921336    ( 0.0000,  0.0000,  0.0000)
  31 Cu     2.891979    3.696489   12.570906    ( 0.0000,  0.0000,  0.0000)
  32 Cu     2.893008    3.701406   15.220839    ( 0.0000,  0.0000,  0.0000)
  33 Cu     1.586757    5.551594   16.543688    ( 0.0000,  0.0000,  0.0000)
  34 Cu     4.203073    5.549574   16.542388    ( 0.0000,  0.0000,  0.0000)
  35 Cu     0.277652    3.699826   15.228727    ( 0.0000,  0.0000,  0.0000)
  36 Cu     0.278347    3.700871   17.844615    ( 0.0000,  0.0000,  0.0000)
  37 Cu     4.202226    5.552299   19.162667    ( 0.0000,  0.0000,  0.0000)
  38 Cu     1.587282    5.550511   19.162081    ( 0.0000,  0.0000,  0.0000)
  39 Cu     2.896094    3.699332   17.846167    ( 0.0000,  0.0000,  0.0000)
  40 Cu     2.895034    3.689744   20.468648    ( 0.0000,  0.0000,  0.0000)
  41 Cu     1.581145    5.547784   21.761122    ( 0.0000,  0.0000,  0.0000)
  42 Cu     4.208363    5.548067   21.763035    ( 0.0000,  0.0000,  0.0000)
  43 Cu     0.277513    3.699240   20.468279    ( 0.0000,  0.0000,  0.0000)
  44 Cu     0.282403    3.692379   23.126419    ( 0.0000,  0.0000,  0.0000)
  45 Cu     4.204347    5.557399   24.312269    ( 0.0000,  0.0000,  0.0000)
  46 Cu     1.585207    5.556171   24.307688    ( 0.0000,  0.0000,  0.0000)
  47 Cu     2.895682    3.707975   23.099015    ( 0.0000,  0.0000,  0.0000)
  48 Cu     6.815902    1.857266   11.266864    ( 0.0000,  0.0000,  0.0000)
  49 Cu     5.512292   -0.007627   10.084231    ( 0.0000,  0.0000,  0.0000)
  50 Cu     5.516568    0.003856   12.630858    ( 0.0000,  0.0000,  0.0000)
  51 Cu     6.820227    1.852728   13.924166    ( 0.0000,  0.0000,  0.0000)
  52 Cu     6.819210    1.851175   16.547654    ( 0.0000,  0.0000,  0.0000)
  53 Cu     5.510471    0.001413   15.229784    ( 0.0000,  0.0000,  0.0000)
  54 Cu     5.510806    0.000434   17.848219    ( 0.0000,  0.0000,  0.0000)
  55 Cu     6.820027    1.852260   19.163515    ( 0.0000,  0.0000,  0.0000)
  56 Cu     6.820094    1.855667   21.761999    ( 0.0000,  0.0000,  0.0000)
  57 Cu     5.512423    0.002682   20.470960    ( 0.0000,  0.0000,  0.0000)
  58 Cu     5.506106    0.008663   23.111884    ( 0.0000,  0.0000,  0.0000)
  59 Cu     6.819522    1.843288   24.299220    ( 0.0000,  0.0000,  0.0000)
[...]
  63 Cu     6.820366    5.548841   13.922651    ( 0.0000,  0.0000,  0.0000)
  64 Cu     6.819498    5.551245   16.541105    ( 0.0000,  0.0000,  0.0000)
  65 Cu     5.513131    3.699586   15.221299    ( 0.0000,  0.0000,  0.0000)
  66 Cu     5.509488    3.700623   17.846432    ( 0.0000,  0.0000,  0.0000)
  67 Cu     6.819828    5.550615   19.155631    ( 0.0000,  0.0000,  0.0000)
  68 Cu     6.819845    5.546713   21.765705    ( 0.0000,  0.0000,  0.0000)
  69 Cu     5.511227    3.699174   20.471342    ( 0.0000,  0.0000,  0.0000)
  70 Cu     5.505644    3.692016   23.130762    ( 0.0000,  0.0000,  0.0000)
  71 Cu     6.819911    5.559715   24.306944    ( 0.0000,  0.0000,  0.0000)
  72 Cl     2.887818    1.790073   26.301630    ( 0.0000,  0.0000,  0.0000)
  73 Cl     4.208862    3.653676    8.090793    ( 0.0000,  0.0000,  0.0000)
[...]
 |    Cu    CuCu   Cu    |
 |  Cu|CuCCu   CuCu  Cu  |
 |Cu  CuCu  Cu     Cu    |
 |  Cu|  CuCuCuCuCu  Cu  |
 |    | Cu    Cu         |
 |  CuCu CuCCu CuCuCuCu  |
 |Cu  |       Cu         |
 |  CuCu CCuCu CuCuCuCu  |
 |    |Cu    Cu    Cu    |
 |CuCuCuCuCuCuCu CuCu    |
 |    |       Cl         |

[...]

     iter     time        total  log10-change:
                         energy  eigst   dens
iter:   1 14:35:10 -5675.918502  -1.97
iter:   2 14:36:22 -5676.071927  -2.98  -2.47
iter:   3 14:37:33 -5675.999905c -2.98  -2.34
iter:   4 14:38:46 -5675.167544  -3.16  -2.35
iter:   5 14:39:58 -5675.141734  -3.71  -2.84
iter:   6 14:41:15 -5675.089377c -3.97  -2.93
iter:   7 14:42:29 -5675.085118c -4.40  -3.17
iter:   8 14:44:02 -5675.085069c -4.69  -3.23
iter:   9 14:45:15 -5675.086636c -4.69  -3.31
iter:  10 14:46:29 -5675.078415c -5.24  -3.34
iter:  11 14:47:42 -5675.077125c -5.18  -3.69
iter:  12 14:48:55 -5675.076326c -5.63  -3.70
iter:  13 14:50:21 -5675.076550c -5.71  -3.94
iter:  14 14:51:33 -5675.076440c -6.00  -3.91
iter:  15 14:52:46 -5675.076305c -6.23  -3.95
iter:  16 14:54:05 -5675.076126c -5.92  -4.06c
iter:  17 14:55:18 -5675.076019c -6.63  -4.31c
iter:  18 14:56:48 -5675.075926c -6.55  -4.31c
iter:  19 14:58:33 -5675.075903c -6.91  -4.43c
iter:  20 14:59:55 -5675.075911c -7.32  -4.67c
iter:  21 15:01:07 -5675.075909c -7.75c -4.79c

[...]

Density initialized from wave functions
 |    |    Cl      Cl    |
 |    |        Cu        |
 |    | CCl  Cu      Cu  |
 |  CuCu   CuCu  CuCu    |
 |    |  Cu    Cu  CuCu  |
 |Cu  Cu    CuCu   Cu    |
 |  Cu|CuCCu   CuCu  Cu  |
 |Cu  CuCu  Cu     Cu    |
 |  Cu|CuCuCuCuCuCu  Cu  |
 |    | Cu    Cu         |
 |  CuCu CuCCu CuCuCuCu  |
 |    |       Cu         |
 |  CuCu CCuCu CuCuCuCu  |
 |    |      Cu    Cu    |
 |CuCuCuCuCuCuCu CuCu    |
 |Cu  |       Cl         |

[...]

Density initialized from wave functions
 |    |    Cl      Cl    |
 |    |        Cu        |
 |    | CCl  Cu    CuCu  |
 |  CuCu   CuCu  CuCu    |
 |    |  Cu    Cu  CuCu  |
 |Cu  Cu    Cu     Cu    |
 |  Cu|CuCuCuCuCuCuCuCu  |
 |Cu  CuCu  Cu     Cu    |
 |  Cu|CuCuCuCuCuCu  Cu  |
 |  CuCu CuCCu CuCuCuCu  |
 |    |       Cu         |
 |  CuCu CuCCu CuCuCuCu  |
 |    |      Cu    Cu    |
 |CuCuCuCuCuCuCu CuCu    |
 |Cu  |       Cl         |

[...]

Density initialized from wave functions
 |    |    Cl      Cl    |
 |    |        Cu        |
 |    | CCl  Cu    CuCu  |
 |  CuCu   CuCu  CuCu    |
 |    |  Cu    Cu  CuCu  |
 |Cu  Cu    Cu     Cu    |
 |  Cu|CuCuCu  CuCuCuCu  |
 |Cu  CuCu  Cu     Cu    |
 |  Cu|CuCuCuCuCuCu  Cu  |
 |    | Cu               |
 |  CuCu CuCCu CuCuCuCu  |
 |    |       Cu         |
 |  CuCu CuCCu CuCuCuCu  |
 |    |      Cu    Cu    |
 |CuCuCuCuCuCuCu CuCu    |
 |Cu  |       Cl         |

[...]

Density initialized from wave functions
 |    |    Cl      Cl    |
 |    |        Cu        |
 |    | CCl  Cu    CuCu  |
 |  CuCu   CuCu  CuCu    |
 |    |  Cu    Cu  CuCu  |
 |Cu  Cu    Cu     Cu    |
 |  Cu|CuCuCu  CuCuCuCu  |
 |Cu  CuCu  Cu     Cu    |
 |  Cu|CuCuCuCuCuCu  Cu  |
 |    | Cu               |
 |  CuCu CuCCu CuCuCuCu  |
 |    |       Cu         |
 |  CuCu CuCCu CuCuCuCu  |
 |    |      Cu    Cu    |
 |CuCuCuCuCuCuCu CuCu    |
 |Cu  |       Cl         |

[...]

Density initialized from wave functions
 |    |    Cl      Cl    |
 |    |        Cu        |
 |    | CCl  Cu    CuCu  |
 |  CuCu   CuCu  CuCu    |
 |    |  Cu  CuCu  CuCu  |
 |Cu  Cu   CCu   CuCu    |
 |  Cu|  Cu  CuCu  CuCu  |
 |Cu  Cu    Cu     Cu    |
 |  Cu|CuCuCuCuCuCu  Cu  |
 |Cu  |                  |
 |  CuCu CuCCu CuCuCuCu  |
 |    |       Cu         |
 |  CuCu CuCCu CuCuCuCu  |
 |    |      Cu    Cu    |
 |CuCuCuCuCuCuCu CuCu    |
 |Cu  |       Cl         |

[...]

Density initialized from wave functions
 |    |    Cl      Cl    |
 |    |        Cu        |
 |    | CCl  Cu    CuCu  |
 |  CuCu   CuCu  CuCu    |
 |    |  Cu  CuCu  CuCu  |
 |Cu  Cu   CCu   CuCu    |
 |  Cu|  Cu  CuCu  CuCu  |
 |Cu  Cu    Cu     Cu    |
 |  Cu|CuCuCuCuCuCu  Cu  |
 |Cu  |                  |
 |  CuCu CuCCu CuCuCuCu  |
 |    |      Cu    Cu    |
 |    |       Cu         |
 |  CuCu CuCCu CuCuCuCu  |
 |    |      Cu    Cu    |
 |CuCuCu CCuCu   CuCu    |
 |Cu  |       Cl         |

[...]

Density initialized from wave functions
 |    |    Cl      Cl    |
 |    |        Cu        |
 |    | CCl  Cu    CuCu  |
 |  CuCu   CuCu  CuCu    |
 |    |  Cu  CuCu  CuCu  |
 |Cu  Cu   CCu   CuCu    |
 |  Cu|  Cu  CuCu  CuCu  |
 |Cu  Cu    Cu     Cu    |
 |  Cu|CuCuCuCuCuCu  Cu  |
 |Cu  |                  |
 |  CuCu CuCCu CuCuCuCu  |
 |    |       Cu         |
 |  CuCu CuCCu CuCuCuCu  |
 |    |      Cu    Cu    |
 |CuCuCuCuCuCuCu CuCu    |
 |Cu  |       Cl         |

[...]

Density initialized from wave functions
 |    |    Cl      Cl    |
 |    |        Cu        |
 |    | CCl  Cu    CuCu  |
 |  CuCu   CuCu  CuCu    |
 |    |  Cu  CuCu  CuCu  |
 |Cu  Cu   CCu   CuCu    |
 |  Cu|  Cu  CuCu  CuCu  |
 |Cu  Cu    Cu     Cu    |
 |  Cu|  CuCuCuCuCu  Cu  |
 |Cu  |                  |
 |  CuCu CuCCu CuCuCuCu  |
 |    |      Cu    Cu    |
 |Cu  |       Cu         |
 |  CuCu CuCCu CuCuCuCu  |
 |    |      Cu    Cu    |
 |CuCuCu CCuCu   CuCu    |
 |Cu  |       Cl         |

[...]

     iter     time        total  log10-change:
                         energy  eigst   dens
iter:   1 17:30:34 -5675.283785  -3.83
iter:   2 17:31:48 -5675.443119  -3.61  -2.91
iter:   3 17:33:03 -5675.216745c -4.06  -2.65
iter:   4 17:34:23 -5675.203091c -5.32  -3.30
iter:   5 17:35:36 -5675.202622c -5.72  -3.74
iter:   6 17:36:50 -5675.202568c -5.98  -3.97
iter:   7 17:38:08 -5675.202440c -6.17  -4.19c
iter:   8 17:39:25 -5675.202460c -6.87  -4.37c
iter:   9 17:40:39 -5675.202435c -6.81  -4.43c
iter:  10 17:41:52 -5675.202448c -7.55c -4.69c

[...]

System changes: positions

Initializing position-dependent things.

Density initialized from wave functions
 |    |    Cl      Cl    |
 |    |        Cu        |
 |    | CCl  Cu    CuCu  |
 |  CuCu   CuCu  CuCu    |
 |    |  Cu  CuCu  CuCu  |
 |Cu  Cu   CCu   CuCu    |
 |  Cu|  Cu  CuCu  CuCu  |
 |Cu  Cu    Cu     Cu    |
 |  Cu|  CuCuCuCuCu  Cu  |
 |Cu  |                  |
 |  CuCu CuCCu CuCuCuCu  |
 |    |      Cu    Cu    |
 |Cu  |       Cu         |
 |  CuCu CuCCu CuCuCuCu  |
 |    |      Cu    Cu    |
 |CuCuCu CCuCu   CuCu    |
 |Cu  |       Cl         |

Positions:
   0 Cu     2.914092   -0.020556    9.715385    ( 0.0000,  0.0000,  0.0000)
   1 Cu     1.610260    1.843395   11.290879    ( 0.0000,  0.0000,  0.0000)
   2 Cu     4.192448    1.827104   11.306907    ( 0.0000,  0.0000,  0.0000)
   3 Cu     0.263269    0.007681   10.074440    ( 0.0000,  0.0000,  0.0000)
   4 Cu     0.272008    0.001195   12.604226    ( 0.0000,  0.0000,  0.0000)
   5 Cu     4.202171    1.849359   13.916210    ( 0.0000,  0.0000,  0.0000)
   6 Cu     1.588229    1.838173   13.923500    ( 0.0000,  0.0000,  0.0000)
   7 Cu     2.890910   -0.000113   12.528158    ( 0.0000,  0.0000,  0.0000)
   8 Cu     2.897462   -0.000715   15.205764    ( 0.0000,  0.0000,  0.0000)
   9 Cu     1.591361    1.848939   16.543447    ( 0.0000,  0.0000,  0.0000)
  10 Cu     4.200961    1.850325   16.543748    ( 0.0000,  0.0000,  0.0000)
  11 Cu     0.275488    0.000216   15.224867    ( 0.0000,  0.0000,  0.0000)
  12 Cu     0.279800    0.001613   17.833534    ( 0.0000,  0.0000,  0.0000)
  13 Cu     4.204951    1.849781   19.182603    ( 0.0000,  0.0000,  0.0000)
  14 Cu     1.591015    1.850948   19.166009    ( 0.0000,  0.0000,  0.0000)
  15 Cu     2.897188   -0.000625   17.844493    ( 0.0000,  0.0000,  0.0000)
  16 Cu     2.895886   -0.000928   20.470057    ( 0.0000,  0.0000,  0.0000)
  17 Cu     1.589218    1.851535   21.807927    ( 0.0000,  0.0000,  0.0000)
  18 Cu     4.204491    1.851035   21.818209    ( 0.0000,  0.0000,  0.0000)
  19 Cu     0.276227    0.006909   20.437013    ( 0.0000,  0.0000,  0.0000)
  20 Cu     0.278398    0.011210   23.054221    ( 0.0000,  0.0000,  0.0000)
  21 Cu     4.240342    1.847574   24.403069    ( 0.0000,  0.0000,  0.0000)
  22 Cu     1.548392    1.846519   24.404020    ( 0.0000,  0.0000,  0.0000)
  23 Cu     2.904426   -0.021360   23.077817    ( 0.0000,  0.0000,  0.0000)
  24 Cu     2.858360    3.702491    9.988149    ( 0.0000,  0.0000,  0.0000)
  25 Cu     1.609196    5.554787   11.296890    ( 0.0000,  0.0000,  0.0000)
  26 Cu     4.195024    5.568784   11.314846    ( 0.0000,  0.0000,  0.0000)
  27 Cu     0.277253    3.697286   10.119164    ( 0.0000,  0.0000,  0.0000)
  28 Cu     0.287475    3.700946   12.634354    ( 0.0000,  0.0000,  0.0000)
  29 Cu     4.202636    5.552945   13.922507    ( 0.0000,  0.0000,  0.0000)
  30 Cu     1.587308    5.564730   13.923766    ( 0.0000,  0.0000,  0.0000)
  31 Cu     2.893542    3.700062   12.573672    ( 0.0000,  0.0000,  0.0000)
  32 Cu     2.893506    3.702152   15.209214    ( 0.0000,  0.0000,  0.0000)
  33 Cu     1.590638    5.552963   16.545081    ( 0.0000,  0.0000,  0.0000)
  34 Cu     4.201015    5.552299   16.547674    ( 0.0000,  0.0000,  0.0000)
  35 Cu     0.284383    3.701078   15.224444    ( 0.0000,  0.0000,  0.0000)
  36 Cu     0.280520    3.699770   17.832023    ( 0.0000,  0.0000,  0.0000)
  37 Cu     4.200947    5.552371   19.186102    ( 0.0000,  0.0000,  0.0000)
  38 Cu     1.585388    5.551196   19.168346    ( 0.0000,  0.0000,  0.0000)
  39 Cu     2.897418    3.701363   17.847816    ( 0.0000,  0.0000,  0.0000)
  40 Cu     2.895860    3.702571   20.475515    ( 0.0000,  0.0000,  0.0000)
  41 Cu     1.573810    5.551339   21.773827    ( 0.0000,  0.0000,  0.0000)
  42 Cu     4.207306    5.549804   21.864246    ( 0.0000,  0.0000,  0.0000)
  43 Cu     0.276392    3.694158   20.436991    ( 0.0000,  0.0000,  0.0000)
  44 Cu     0.278748    3.686928   23.056554    ( 0.0000,  0.0000,  0.0000)
  45 Cu     4.184456    5.555077   24.678886    ( 0.0000,  0.0000,  0.0000)
  46 Cu     1.538327    5.554591   24.300120    ( 0.0000,  0.0000,  0.0000)
  47 Cu     2.904910    3.720606   23.085462    ( 0.0000,  0.0000,  0.0000)
  48 Cu     6.819868    1.860585   11.336704    ( 0.0000,  0.0000,  0.0000)
  49 Cu     5.557371   -0.002106   10.089029    ( 0.0000,  0.0000,  0.0000)
  50 Cu     5.524841   -0.000092   12.617398    ( 0.0000,  0.0000,  0.0000)
  51 Cu     6.822190    1.858188   13.956113    ( 0.0000,  0.0000,  0.0000)
  52 Cu     6.817713    1.852252   16.560485    ( 0.0000,  0.0000,  0.0000)
  53 Cu     5.512804    0.000612   15.223676    ( 0.0000,  0.0000,  0.0000)
  54 Cu     5.507750   -0.001317   17.846880    ( 0.0000,  0.0000,  0.0000)
  55 Cu     6.813976    1.851043   19.167600    ( 0.0000,  0.0000,  0.0000)
  56 Cu     6.811399    1.849604   21.757357    ( 0.0000,  0.0000,  0.0000)
  57 Cu     5.510720   -0.012926   20.468309    ( 0.0000,  0.0000,  0.0000)
  58 Cu     5.487955   -0.007058   23.096571    ( 0.0000,  0.0000,  0.0000)
  59 Cu     6.820919    1.849250   24.272604    ( 0.0000,  0.0000,  0.0000)
[...]
  63 Cu     6.822256    5.544955   13.954225    ( 0.0000,  0.0000,  0.0000)
  64 Cu     6.818562    5.550193   16.558132    ( 0.0000,  0.0000,  0.0000)
  65 Cu     5.507107    3.701149   15.225953    ( 0.0000,  0.0000,  0.0000)
  66 Cu     5.506967    3.703066   17.848707    ( 0.0000,  0.0000,  0.0000)
  67 Cu     6.822849    5.551786   19.167033    ( 0.0000,  0.0000,  0.0000)
  68 Cu     6.826089    5.548990   21.787028    ( 0.0000,  0.0000,  0.0000)
  69 Cu     5.510287    3.713362   20.468519    ( 0.0000,  0.0000,  0.0000)
  70 Cu     5.487690    3.704575   23.101456    ( 0.0000,  0.0000,  0.0000)
  71 Cu     6.834994    5.547676   24.315952    ( 0.0000,  0.0000,  0.0000)
  72 Cl     2.909113    1.789715   26.225990    ( 0.0000,  0.0000,  0.0000)
  73 Cl     4.188400    3.670442    8.165809    ( 0.0000,  0.0000,  0.0000)
  74 Cl     5.928907    5.618591   26.326676    ( 0.0000,  0.0000,  0.0000)
  75 Cl     1.169955   -0.164663    8.069667    ( 0.0000,  0.0000,  0.0000)
  76 Cl     4.670579   -0.020053    8.086206    ( 0.0000,  0.0000,  0.0000)
  77 Cl     2.425467    5.475921   26.304367    ( 0.0000,  0.0000,  0.0000)

Unit cell:
           periodic     x           y           z      points  spacing
  1. axis:    yes    7.851007    0.000000    0.000000    45     0.1745
  2. axis:    yes    0.000000    7.402000    0.000000    42     0.1762
  3. axis:    yes    0.000000    0.000000   34.393512   196     0.1755

  Lengths:   7.851007   7.402000  34.393512
  Angles:   90.000000  90.000000  90.000000

Effective grid spacing dv^(1/3) = 0.1754

     iter     time        total  log10-change:
                         energy  eigst   dens
iter:   1 17:43:49 -5675.285733  -4.29
iter:   2 17:45:02 -5675.634460  -3.51  -2.89
iter:   3 17:46:15 -5675.203171  -3.99  -2.52
iter:   4 17:47:28 -5675.202628  -5.54  -3.98
iter:   5 17:48:41 -5675.202432c -6.38  -4.16c
iter:   6 17:50:12 -5675.202377c -6.45  -4.34c
iter:   7 17:51:30 -5675.202367c -7.36  -4.53c
iter:   8 17:52:43 -5675.202374c -7.33  -4.65c
iter:   9 17:53:59 -5675.202379c -7.50c -4.69c

Converged after 9 iterations.

Dipole moment: (-71.267507, 14.331220, -0.003646) |e|*Ang

Energy contributions relative to reference atoms: (reference = -3316874.228935)

Kinetic:       +545.696250
Potential:     -605.124536
External:        +0.000000
XC:            -5614.565227
Entropy (-ST):   -0.699926
Local:           -0.858903
Free energy:   -5675.552342
Extrapolated:  -5675.202379

Showing only first 2 kpts
 Kpt  Band  Eigenvalues  Occupancy
  0   415      0.35289    1.11738
  0   416      0.37013    1.03168
  0   417      0.45328    0.63379
  0   418      0.51527    0.39944

  1   415     -0.06448    1.97597
  1   416      0.04028    1.93298
  1   417      0.11711    1.86090
  1   418      0.26786    1.49530

Fermi level: 0.37647

No gap

Forces in eV/Ang:
  0 Cu   -0.00269   -0.00204    0.00595
  1 Cu    0.00075   -0.00058   -0.00636
  2 Cu   -0.00057    0.00054   -0.00559
  3 Cu   -0.00851    0.00194    0.00397
  4 Cu    0.00079   -0.00102   -0.01294
  5 Cu    0.00241    0.00169   -0.00171
  6 Cu    0.00030    0.00091   -0.00475
  7 Cu    0.00016   -0.00085    0.00581
  8 Cu    0.00014   -0.00008   -0.00247
  9 Cu   -0.00220    0.00035   -0.00202
 10 Cu    0.00162    0.00001    0.00268
 11 Cu    0.00154   -0.00043   -0.00794
 12 Cu   -0.00006   -0.00218    0.00069
 13 Cu   -0.00128   -0.00102    0.00359
 14 Cu   -0.00638   -0.00115    0.00513
 15 Cu   -0.00131    0.00024    0.00460
 16 Cu   -0.00104    0.00193    0.00470
 17 Cu    0.00508   -0.00124    0.00036
 18 Cu    0.00039   -0.00130    0.00206
 19 Cu    0.00013   -0.00535    0.00721
 20 Cu   -0.00066    0.00077    0.00511
 21 Cu   -0.00081   -0.00040    0.01782
 22 Cu    0.00840    0.00089    0.00833
 23 Cu   -0.00050    0.00102    0.00663
 24 Cu   -0.00676    0.00000   -0.00708
 25 Cu    0.00100   -0.00121   -0.00449
 26 Cu   -0.00051   -0.00140   -0.00525
 27 Cu   -0.00038   -0.00019   -0.00150
 28 Cu    0.00161   -0.00102    0.00057
 29 Cu    0.00237   -0.00177   -0.00414
 30 Cu   -0.00022   -0.00126   -0.00203
 31 Cu    0.00093   -0.00062   -0.00202
 32 Cu    0.00057    0.00033   -0.00211
 33 Cu   -0.00120   -0.00058    0.00176
 34 Cu    0.00198   -0.00001   -0.00149
 35 Cu   -0.00521    0.00052   -0.00200
 36 Cu   -0.00116    0.00161    0.00277
 37 Cu   -0.00052    0.00042    0.00590
 38 Cu    0.00186    0.00035    0.00548
 39 Cu   -0.00097   -0.00081    0.00090
 40 Cu   -0.00097   -0.00282    0.00239
 41 Cu   -0.00176    0.00012    0.01000
 42 Cu    0.00077    0.00076   -0.00590
 43 Cu    0.00059    0.00442    0.00806
 44 Cu   -0.00032   -0.00120    0.00467
 45 Cu   -0.00299   -0.00045   -0.00865
 46 Cu    0.00655   -0.00070    0.00906
 47 Cu   -0.00040   -0.00155    0.00444
 48 Cu   -0.00164    0.00083   -0.01084
 49 Cu    0.01358    0.00061    0.01851
 50 Cu    0.00013   -0.00036   -0.01113
 51 Cu   -0.00091   -0.00645   -0.00833
 52 Cu    0.00187   -0.00191   -0.00079
 53 Cu    0.00013   -0.00022   -0.00572
 54 Cu    0.00122    0.00100    0.00027
 55 Cu    0.00641   -0.00139    0.00412
 56 Cu   -0.00555   -0.00075    0.00190
 57 Cu    0.00002    0.00101    0.00429
 58 Cu    0.00258   -0.00043    0.00320
 59 Cu   -0.00154    0.00031    0.00368
[...]
 63 Cu   -0.00013    0.00592   -0.00636
 64 Cu    0.00062    0.00204    0.00135
 65 Cu    0.00731    0.00032   -0.00235
 66 Cu    0.00211   -0.00133    0.00374
 67 Cu   -0.00171    0.00068    0.00911
 68 Cu    0.00078    0.00051    0.01573
 69 Cu   -0.00031   -0.00123    0.00676
 70 Cu    0.00260    0.00007    0.00256
 71 Cu    0.00243   -0.00154   -0.00281
 72 Cl   -0.00387   -0.00105   -0.01253
 73 Cl    0.00598    0.00708   -0.00453
 74 Cl   -0.00653    0.00657    0.00319
 75 Cl    0.00333   -0.00252   -0.00452
 76 Cl   -0.01435    0.00671   -0.02192
 77 Cl    0.01173    0.00343   -0.00322