User:   thorkong@node024.cluster
Date:   Sun Oct  9 04:57:11 2022
Arch:   x86_64
Pid:    68565
Python: 3.10.5
gpaw:   /groups/kemi/thorkong/miniconda3/envs/gpaw22/lib/python3.10/site-packages/gpaw
_gpaw:  /groups/kemi/thorkong/miniconda3/envs/gpaw22/lib/python3.10/site-packages/
        _gpaw.cpython-310-x86_64-linux-gnu.so
ase:    /groups/kemi/thorkong/miniconda3/envs/gpaw22/lib/python3.10/site-packages/ase (version 3.22.1)
numpy:  /groups/kemi/thorkong/miniconda3/envs/gpaw22/lib/python3.10/site-packages/numpy (version 1.23.0)
scipy:  /groups/kemi/thorkong/miniconda3/envs/gpaw22/lib/python3.10/site-packages/scipy (version 1.8.1)
units:  Angstrom and eV
cores: 32
OpenMP: True
OMP_NUM_THREADS: 1

Input parameters:
  basis: dzp
  kpts: [4 4 1]
  mode: {ecut: 600.0,
         name: pw}
  xc: BEEF-vdW

System changes: positions, numbers, cell, pbc, initial_charges, initial_magmoms

Initialize ...

Cu-setup:
  name: Copper
  id: f1c4d45d90492f1bbfdcb091e8418fdf
  Z: 29.0
  valence: 11
  core: 18
  charge: 0.0
  file: /groups/kemi/thorkong/miniconda3/envs/gpaw22/share/gpaw/Cu.PBE.gz
  compensation charges: gauss, rc=0.33, lmax=2
  cutoffs: 2.06(filt), 2.43(core),
  valence states:
                energy  radius
    4s(1.00)    -4.609   1.164
    4p(0.00)    -0.698   1.164
    3d(10.00)    -5.039   1.058
    *s          22.603   1.164
    *p          26.513   1.164
    *d          22.172   1.058

  LCAO basis set for Cu:
    Name: dzp
    File: /groups/kemi/thorkong/miniconda3/envs/gpaw22/share/gpaw/Cu.dzp.basis.gz
    Number of radial functions: 5
    Number of spherical harmonics: 15
      l=0, rc=8.9688 Bohr: 4s-sz confined orbital
      l=2, rc=5.1719 Bohr: 3d-sz confined orbital
      l=0, rc=5.3281 Bohr: 4s-dz split-valence wave
      l=2, rc=3.1406 Bohr: 3d-dz split-valence wave
      l=1, rc=8.9688 Bohr: p-type Gaussian polarization

Cl-setup:
  name: Chlorine
  id: 726897f06f34e53cf8e33b5885a02604
  Z: 17.0
  valence: 7
  core: 10
  charge: 0.0
  file: /groups/kemi/thorkong/miniconda3/envs/gpaw22/share/gpaw/Cl.PBE.gz
  compensation charges: gauss, rc=0.25, lmax=2
  cutoffs: 1.40(filt), 1.49(core),
  valence states:
                energy  radius
    3s(2.00)   -20.689   0.794
    3p(5.00)    -8.594   0.794
    *s           6.523   0.794
    *p          18.617   0.794
    *d           0.000   0.794

  LCAO basis set for Cl:
    Name: dzp
    File: /groups/kemi/thorkong/miniconda3/envs/gpaw22/share/gpaw/Cl.dzp.basis.gz
    Number of radial functions: 5
    Number of spherical harmonics: 13
      l=0, rc=5.1719 Bohr: 3s-sz confined orbital
      l=1, rc=6.2656 Bohr: 3p-sz confined orbital
      l=0, rc=2.8281 Bohr: 3s-dz split-valence wave
      l=1, rc=3.5156 Bohr: 3p-dz split-valence wave
      l=2, rc=6.2656 Bohr: d-type Gaussian polarization

Reference energy: -2556707.893378

Spin-paired calculation

Convergence criteria:
 Maximum [total energy] change in last 3 cyles: 0.0005 eV / electron
 Maximum integral of absolute [dens]ity change: 0.0001 electrons / valence electron
 Maximum integral of absolute [eigenst]ate change: 4e-08 eV^2 / valence electron
 Maximum number of scf [iter]ations: 333
 (Square brackets indicate name in SCF output, whereas a 'c' in
 the SCF output indicates the quantity has converged.)

Symmetries present (total): 1

  ( 1  0  0)
  ( 0  1  0)
  ( 0  0  1)

16 k-points: 4 x 4 x 1 Monkhorst-Pack grid
8 k-points in the irreducible part of the Brillouin zone
       k-points in crystal coordinates                weights
   0:     0.12500000   -0.37500000    0.00000000          2/16
   1:     0.12500000   -0.12500000    0.00000000          2/16
   2:     0.12500000    0.12500000    0.00000000          2/16
   3:     0.12500000    0.37500000    0.00000000          2/16
   4:     0.37500000   -0.37500000    0.00000000          2/16
   5:     0.37500000   -0.12500000    0.00000000          2/16
   6:     0.37500000    0.12500000    0.00000000          2/16
   7:     0.37500000    0.37500000    0.00000000          2/16

Wave functions: Plane wave expansion
  Cutoff energy: 600.000 eV
  Number of coefficients (min, max): 63070, 63184
  Pulay-stress correction: 0.000000 eV/Ang^3 (de/decut=0.000000)
  Using FFTW library
  ScaLapack parameters: grid=2x2, blocksize=64
  Wavefunction extrapolation:
    Improved wavefunction reuse through dual PAW basis

Occupation numbers: Fermi-Dirac: width=0.1000 eV

Eigensolver
   Davidson(niter=2)

Densities:
  Coarse grid: 45*48*175 grid
  Fine grid: 90*96*350 grid
  Total Charge: 0.000000

Density mixing:
  Method: separate
  Backend: pulay
  Linear mixing parameter: 0.05
  Mixing with 5 old densities
  Damping of long wave oscillations: 50

Hamiltonian:
  XC and Coulomb potentials evaluated on a 90*96*350 grid
  Using the BEEF-vdW Exchange-Correlation functional
  External potential:
    NoExternalPotential

XC parameters: BEEF-vdW with 2 nearest neighbor stencil

Total number of cores used: 32
Parallelization over k-points: 8
Domain decomposition: 1 x 1 x 4
                      2 x 2 x 8 (xc only)

Number of atoms: 64
Number of atomic orbitals: 940
Number of bands in calculation: 403
Number of valence electrons: 664
Bands to converge: occupied

... initialized

Initializing position-dependent things.

Density initialized from atomic densities
Creating initial wave functions:
  403 bands from LCAO basis set

               Cl         Cl
                   Cl
                       Cl
          CuCl  Cu     Cu

         Cu   CCu   CCu    Cu
       Cu   CuCu   CCu   Cu

          CCu   CuCu   CCu
         Cu   CCu   CCu    Cu

       Cu    CCu   CCu   Cu
          CCu   CuCu   CCu

         Cu   CCu   CuCu   Cu
       Cu    CCu   CCu   Cu

           Cu     Cu  ClCu
           Cl
               Cl
        Cl         Cl

Positions:
   0 Cu     1.901994    1.846706   10.034138    ( 0.0000,  0.0000,  0.0000)
   1 Cu     0.570302    0.526646   11.829022    ( 0.0000,  0.0000,  0.0000)
   2 Cu     3.208703    0.508690   11.864213    ( 0.0000,  0.0000,  0.0000)
   3 Cu     1.878070    1.831240   13.690172    ( 0.0000,  0.0000,  0.0000)
   4 Cu     0.567094    0.536317   15.559951    ( 0.0000,  0.0000,  0.0000)
   5 Cu     3.195023    0.524175   15.539117    ( 0.0000,  0.0000,  0.0000)
   6 Cu     1.877658    1.834498   17.411233    ( 0.0000,  0.0000,  0.0000)
   7 Cu     0.580759    0.534759   19.333259    ( 0.0000,  0.0000,  0.0000)
   8 Cu     3.190008    0.528954   19.223651    ( 0.0000,  0.0000,  0.0000)
   9 Cu     0.544162    3.144977   11.849827    ( 0.0000,  0.0000,  0.0000)
  10 Cu     0.567493    3.128343   15.544485    ( 0.0000,  0.0000,  0.0000)
  11 Cu     0.589717    3.142916   19.303444    ( 0.0000,  0.0000,  0.0000)
  12 Cu     7.133691    1.836403    9.937606    ( 0.0000,  0.0000,  0.0000)
  13 Cu     5.802258    0.516980   11.816259    ( 0.0000,  0.0000,  0.0000)
  14 Cu     7.111323    1.820103   13.698178    ( 0.0000,  0.0000,  0.0000)
  15 Cu     5.812582    0.511491   15.561934    ( 0.0000,  0.0000,  0.0000)
  16 Cu     7.109259    1.823628   17.431826    ( 0.0000,  0.0000,  0.0000)
  17 Cu     5.801095    0.519517   19.336082    ( 0.0000,  0.0000,  0.0000)
  18 Cu     4.501494    1.853752   10.040290    ( 0.0000,  0.0000,  0.0000)
  19 Cu     4.483624    4.441714   10.037132    ( 0.0000,  0.0000,  0.0000)
  20 Cu     3.194957    3.141350   11.887232    ( 0.0000,  0.0000,  0.0000)
  21 Cu     5.836213    3.140688   11.851213    ( 0.0000,  0.0000,  0.0000)
  22 Cu     4.513639    1.831178   13.711909    ( 0.0000,  0.0000,  0.0000)
  23 Cu     4.504723    4.454087   13.698208    ( 0.0000,  0.0000,  0.0000)
  24 Cu     3.186525    3.140185   15.552556    ( 0.0000,  0.0000,  0.0000)
  25 Cu     5.822982    3.145497   15.543272    ( 0.0000,  0.0000,  0.0000)
  26 Cu     4.518036    1.818926   17.383649    ( 0.0000,  0.0000,  0.0000)
  27 Cu     4.496288    4.452875   17.363886    ( 0.0000,  0.0000,  0.0000)
  28 Cu     3.207585    3.152470   19.214243    ( 0.0000,  0.0000,  0.0000)
  29 Cu     5.806225    3.164205   19.207005    ( 0.0000,  0.0000,  0.0000)
  30 Cu     1.885008    4.429899   10.044373    ( 0.0000,  0.0000,  0.0000)
  31 Cu     1.890034    7.074780    9.915145    ( 0.0000,  0.0000,  0.0000)
  32 Cu     0.582086    5.770682   11.819579    ( 0.0000,  0.0000,  0.0000)
  33 Cu     3.173112    5.775306   11.867299    ( 0.0000,  0.0000,  0.0000)
  34 Cu     1.868303    4.448748   13.707554    ( 0.0000,  0.0000,  0.0000)
  35 Cu     1.878649    7.082737   13.689111    ( 0.0000,  0.0000,  0.0000)
  36 Cu     0.579853    5.774122   15.552667    ( 0.0000,  0.0000,  0.0000)
  37 Cu     3.177607    5.763069   15.538872    ( 0.0000,  0.0000,  0.0000)
  38 Cu     1.855092    4.453543   17.399815    ( 0.0000,  0.0000,  0.0000)
  39 Cu     1.888906    7.077237   17.435100    ( 0.0000,  0.0000,  0.0000)
  40 Cu     0.557536    5.757691   19.313552    ( 0.0000,  0.0000,  0.0000)
  41 Cu     3.189820    5.740521   19.211126    ( 0.0000,  0.0000,  0.0000)
  42 Cu     7.101642    4.451613    9.948131    ( 0.0000,  0.0000,  0.0000)
  43 Cu     7.110489    7.059495    9.917939    ( 0.0000,  0.0000,  0.0000)
  44 Cu     5.813481    5.759839   11.839884    ( 0.0000,  0.0000,  0.0000)
  45 Cu     7.123698    4.465950   13.706244    ( 0.0000,  0.0000,  0.0000)
  46 Cu     7.124074    7.057935   13.690960    ( 0.0000,  0.0000,  0.0000)
  47 Cu     5.813205    5.762997   15.560784    ( 0.0000,  0.0000,  0.0000)
  48 Cu     7.147141    4.449199   17.401303    ( 0.0000,  0.0000,  0.0000)
  49 Cu     7.120948    7.067563   17.422331    ( 0.0000,  0.0000,  0.0000)
  50 Cu     5.789231    5.747505   19.217151    ( 0.0000,  0.0000,  0.0000)
  51 Cu     4.501158    7.065259   10.027682    ( 0.0000,  0.0000,  0.0000)
  52 Cu     4.496205    7.070026   13.711606    ( 0.0000,  0.0000,  0.0000)
  53 Cu     4.482549    7.085573   17.386711    ( 0.0000,  0.0000,  0.0000)
  54 Cl     4.487574    4.453425   21.542360    ( 0.0000,  0.0000,  0.0000)
  55 Cl     3.203879    3.140495    7.709001    ( 0.0000,  0.0000,  0.0000)
  56 Cl     2.216080    1.896817   21.579132    ( 0.0000,  0.0000,  0.0000)
  57 Cl     5.475104    5.696999    7.672401    ( 0.0000,  0.0000,  0.0000)
  58 Cl     2.149728    6.805799   21.620673    ( 0.0000,  0.0000,  0.0000)
  59 Cl     5.541721    0.788112    7.630945    ( 0.0000,  0.0000,  0.0000)
  60 Cl     0.922928    0.587464    7.670996    ( 0.0000,  0.0000,  0.0000)
  61 Cl     6.768623    7.006590   21.580487    ( 0.0000,  0.0000,  0.0000)
  62 Cl     6.840798    2.123190   21.623217    ( 0.0000,  0.0000,  0.0000)
  63 Cl     0.850496    5.470606    7.628339    ( 0.0000,  0.0000,  0.0000)

Unit cell:
           periodic     x           y           z      points  spacing
  1. axis:    yes    7.851007    0.000000    0.000000    45     0.1655
  2. axis:    yes    2.617002    7.851007    0.000000    48     0.1636
  3. axis:    yes    0.000000    0.000000   30.683867   175     0.1753

  Lengths:   7.851007   8.275688  30.683867
  Angles:   90.000000  90.000000  71.565053

Effective grid spacing dv^(1/3) = 0.1710

     iter     time        total  log10-change:
                         energy  eigst   dens
iter:   1 05:03:00 -4754.534216
iter:   2 05:03:56 -4620.064700  +0.81  -0.74
iter:   3 05:04:50 -4499.097262  -0.07  -0.97
iter:   4 05:05:42 -4463.086582  -1.40  -1.22
iter:   5 05:06:47 -4452.905867  -1.38  -1.39
iter:   6 05:07:43 -4452.202660  -2.19  -1.47
iter:   7 05:08:34 -4451.871651  -3.41  -1.48
iter:   8 05:09:25 -4451.193254  -2.07  -1.50
iter:   9 05:10:17 -4450.729600  -2.04  -1.61
iter:  10 05:11:09 -4452.192450  -2.42  -1.75
iter:  11 05:12:05 -4450.385606  -2.75  -1.77
iter:  12 05:13:09 -4450.742232  -2.15  -1.84
iter:  13 05:14:05 -4450.206297  -3.84  -1.90
iter:  14 05:14:57 -4448.946480  -2.99  -1.97
iter:  15 05:16:02 -4448.856250  -4.10  -2.26
iter:  16 05:16:55 -4448.852739c -3.34  -2.34
iter:  17 05:17:47 -4448.719357c -4.21  -2.37
iter:  18 05:18:40 -4448.691622c -4.46  -2.59
iter:  19 05:19:32 -4448.679770c -4.55  -2.72
iter:  20 05:20:25 -4448.679712c -4.21  -2.82
iter:  21 05:21:17 -4448.661399c -4.40  -2.82
iter:  22 05:22:09 -4448.659576c -5.50  -3.17
iter:  23 05:23:02 -4448.658797c -5.08  -3.24
iter:  24 05:23:56 -4448.656458c -5.78  -3.20
iter:  25 05:24:49 -4448.655907c -5.83  -3.35
iter:  26 05:25:41 -4448.657030c -6.00  -3.47
iter:  27 05:26:33 -4448.654963c -5.93  -3.48
iter:  28 05:27:28 -4448.655623c -6.29  -3.62
iter:  29 05:28:38 -4448.655798c -6.40  -3.73
iter:  30 05:29:49 -4448.655869c -6.29  -3.88
iter:  31 05:30:46 -4448.655193c -6.60  -4.06c
iter:  32 05:31:47 -4448.655324c -7.36  -4.25c
iter:  33 05:32:38 -4448.655263c -7.27  -4.30c
iter:  34 05:33:39 -4448.655455c -7.42c -4.38c

Converged after 34 iterations.

Dipole moment: (-9.270982, -34.694127, 0.000669) |e|*Ang

Energy contributions relative to reference atoms: (reference = -2556707.893378)

Kinetic:       +419.222271
Potential:     -464.846798
External:        +0.000000
XC:            -4401.684887
Entropy (-ST):   -0.929588
Local:           -0.881247
Free energy:   -4449.120249
Extrapolated:  -4448.655455

Showing only first 2 kpts
 Kpt  Band  Eigenvalues  Occupancy
  0   330     -1.53403    1.86237
  0   331     -1.51584    1.83714
  0   332     -1.40402    1.57333
  0   333     -1.29287    1.09643

  1   330     -1.42745    1.64671
  1   331     -1.40907    1.59003
  1   332     -1.37882    1.48266
  1   333     -1.28396    1.05210

Fermi level: -1.27353

No gap

Forces in eV/Ang:
  0 Cu   -0.05425   -0.13254   -0.96912
  1 Cu   -0.01601   -0.01932   -0.09549
  2 Cu   -0.02697    0.01439   -0.16713
  3 Cu   -0.00236   -0.01808    0.04906
  4 Cu    0.00975   -0.03070   -0.06507
  5 Cu   -0.01269    0.00315   -0.01327
  6 Cu   -0.01158   -0.01968    0.11208
  7 Cu   -0.04694   -0.11710    0.70905
  8 Cu   -0.00437   -0.00927    1.02100
  9 Cu    0.04040   -0.01208   -0.18407
 10 Cu    0.02675    0.03930   -0.02572
 11 Cu   -0.05749   -0.13694    0.59240
 12 Cu   -0.06146   -0.14221   -0.57811
 13 Cu    0.04771   -0.02895   -0.09808
 14 Cu    0.01448    0.03122    0.03118
 15 Cu    0.00125    0.02560   -0.05889
 16 Cu    0.05168   -0.02791    0.09337
 17 Cu    0.05349    0.11547    0.70287
 18 Cu    0.06582   -0.10932   -1.01403
 19 Cu    0.05845    0.10913   -0.96566
 20 Cu   -0.00342   -0.00045   -0.19159
 21 Cu   -0.03572    0.01059   -0.18611
 22 Cu   -0.01581   -0.01018    0.00671
 23 Cu    0.00780    0.00544    0.06724
 24 Cu   -0.00782   -0.00522   -0.06770
 25 Cu   -0.02394   -0.02795    0.00204
 26 Cu   -0.03782    0.01361    0.17506
 27 Cu    0.00332    0.00065    0.19187
 28 Cu   -0.05831   -0.10852    0.96446
 29 Cu    0.07801   -0.12758    1.01391
 30 Cu   -0.07823    0.12866   -1.01368
 31 Cu   -0.05370   -0.11581   -0.70577
 32 Cu   -0.05222    0.02818   -0.09389
 33 Cu    0.03791   -0.01336   -0.17504
 34 Cu    0.02375    0.02815   -0.00241
 35 Cu   -0.00127   -0.02529    0.05844
 36 Cu   -0.01430   -0.03089   -0.03139
 37 Cu    0.01579    0.01046   -0.00671
 38 Cu    0.03574   -0.01051    0.18613
 39 Cu   -0.04744    0.02913    0.09746
 40 Cu    0.06141    0.14296    0.57693
 41 Cu   -0.06650    0.10914    1.01403
 42 Cu    0.05725    0.13608   -0.59322
 43 Cu    0.04671    0.11785   -0.71203
 44 Cu    0.01196    0.01990   -0.11214
 45 Cu   -0.02681   -0.03941    0.02535
 46 Cu   -0.00976    0.03102    0.06482
 47 Cu    0.00212    0.01814   -0.04974
 48 Cu   -0.04046    0.01244    0.18416
 49 Cu    0.01553    0.01966    0.09524
 50 Cu    0.05439    0.13222    0.96771
 51 Cu    0.00408    0.00976   -1.02361
 52 Cu    0.01253   -0.00281    0.01322
 53 Cu    0.02694   -0.01430    0.16741
 54 Cl    0.00320    0.00367   -1.63467
 55 Cl   -0.00328   -0.00369    1.63414
 56 Cl    0.01663    0.07744   -1.77172
 57 Cl   -0.01635   -0.07737    1.77320
 58 Cl    0.29491   -0.31545   -1.61942
 59 Cl   -0.29444    0.31483    1.62017
 60 Cl    0.01153    0.08222    1.77797
 61 Cl   -0.01162   -0.08233   -1.77640
 62 Cl   -0.29906    0.31621   -1.60748
 63 Cl    0.29875   -0.31597    1.60801

System changes: positions

[...]

Density initialized from wave functions

               Cl         Cl
                   Cl
                       Cl
          CuCl  Cu     Cu
         Cu
              CCu   CCu    Cu
       Cu   CuCu   CCu   Cu

          CCu   CuCu   CCu
         Cu   CCu   CCu    Cu

       Cu    CCu   CCu   Cu
          CCu   CuCu   CCu

         Cu   CCu   CuCu   Cu
       Cu    CCu   CCu
                         Cu
           Cu     Cu  ClCu
           Cl
               Cl
        Cl         Cl

[...]

               Cl         Cl
                   Cl
                       Cl
          CuCl  Cu     Cu
         Cu   CCu   CCu    Cu
       Cu           Cu
             CCu   Cu    Cu
          CCu   CuCu   CCu

         Cu   CCu   CCu    Cu
       Cu    CCu   CCu   Cu

          CCu   CuCu   CCu
         Cu    Cu   CCu
              Cu           Cu
       Cu    CCu   CCu   Cu
           Cu     Cu  ClCu
           Cl
               Cl
        Cl         Cl

[...]

               Cl          Cl

                    Cl
           CCl   Cu     Cl
               Cu    Cu     Cu
         Cu    Cu     Cu
       Cu    CCu    Cu    Cu

           Cu    CCu    Cu
         Cu    Cu    CCu    Cu

       Cu    CCu    Cu    Cu
           Cu    CCu    Cu

         Cu    Cu    CCu    Cu
             Cu     Cu    Cu
       Cu     Cu    Cu
           Cu     Cu   CCu
               Cl

[...]

                    Cl
           CCl   Cu     Cl
         Cu    Cu    Cu     Cu
               Cu     Cu
       Cu    CCu    Cu    Cu
                        Cu
           Cu    CCu    Cu
         Cu    Cu    CCu    Cu

       Cu    CCu    Cu    Cu
           Cu    CCu    Cu
           Cu
         Cu    Cu    CCu    Cu
             Cu     Cu
       Cu     Cu    Cu    Cu
           Cu     Cu   CCu
               Cl

[...]

                    Cl
           CCl   Cu     Cl
         Cu    Cu    Cu     Cu
               Cu     Cu
       Cu    CCu    Cu    Cu

[...]

         Cu    Cu    CCu    Cu
             Cu     Cu
       Cu     Cu    Cu    Cu
           Cu     Cu   CCu
               Cl

[...]

System changes: positions

Initializing position-dependent things.

Density initialized from wave functions

[...]

                    Cl
           CCl   Cu     Cl
               Cu    Cu     Cu
         Cu    Cu     Cu
       Cu    CCu    Cu    Cu

           Cu    CCu    Cu
         Cu    Cu    CCu    Cu

       Cu    CCu    Cu    Cu
           Cu    CCu    Cu

         Cu    Cu    CCu    Cu
             Cu     Cu    Cu
       Cu     Cu    Cu
           Cu     Cu   CCu
               Cl

        Cl         Cl

Positions:
   0 Cu     1.854321    1.832771   10.021761    ( 0.0000,  0.0000,  0.0000)
   1 Cu     0.552463    0.507684   11.831723    ( 0.0000,  0.0000,  0.0000)
   2 Cu     3.184168    0.512257   11.865904    ( 0.0000,  0.0000,  0.0000)
   3 Cu     1.866589    1.829111   13.688605    ( 0.0000,  0.0000,  0.0000)
   4 Cu     0.569809    0.531267   15.548293    ( 0.0000,  0.0000,  0.0000)
   5 Cu     3.191887    0.531703   15.529727    ( 0.0000,  0.0000,  0.0000)
   6 Cu     1.858174    1.817728   17.413220    ( 0.0000,  0.0000,  0.0000)
   7 Cu     0.579389    0.476799   19.339010    ( 0.0000,  0.0000,  0.0000)
   8 Cu     3.186052    0.529133   19.241927    ( 0.0000,  0.0000,  0.0000)
   9 Cu     0.536990    3.128934   11.825113    ( 0.0000,  0.0000,  0.0000)
  10 Cu     0.566995    3.135625   15.544263    ( 0.0000,  0.0000,  0.0000)
  11 Cu     0.532241    3.147081   19.324594    ( 0.0000,  0.0000,  0.0000)
  12 Cu     7.073225    1.839928    9.927177    ( 0.0000,  0.0000,  0.0000)
  13 Cu     5.797370    0.509851   11.835347    ( 0.0000,  0.0000,  0.0000)
  14 Cu     7.105077    1.828724   13.699575    ( 0.0000,  0.0000,  0.0000)
  15 Cu     5.806220    0.518731   15.551541    ( 0.0000,  0.0000,  0.0000)
  16 Cu     7.105125    1.817007   17.414615    ( 0.0000,  0.0000,  0.0000)
  17 Cu     5.802369    0.582453   19.338898    ( 0.0000,  0.0000,  0.0000)
  18 Cu     4.467127    1.861087   10.071539    ( 0.0000,  0.0000,  0.0000)
  19 Cu     4.531844    4.449770   10.019219    ( 0.0000,  0.0000,  0.0000)
  20 Cu     3.195727    3.142139   11.886598    ( 0.0000,  0.0000,  0.0000)
  21 Cu     5.842781    3.158144   11.824763    ( 0.0000,  0.0000,  0.0000)
  22 Cu     4.510186    1.841628   13.704433    ( 0.0000,  0.0000,  0.0000)
  23 Cu     4.516783    4.453560   13.709405    ( 0.0000,  0.0000,  0.0000)
  24 Cu     3.174253    3.141418   15.541644    ( 0.0000,  0.0000,  0.0000)
  25 Cu     5.818420    3.147138   15.556866    ( 0.0000,  0.0000,  0.0000)
  26 Cu     4.488042    1.826718   17.386249    ( 0.0000,  0.0000,  0.0000)
  27 Cu     4.495289    4.452739   17.365114    ( 0.0000,  0.0000,  0.0000)
  28 Cu     3.159208    3.144921   19.232514    ( 0.0000,  0.0000,  0.0000)
  29 Cu     5.772878    3.171918   19.178334    ( 0.0000,  0.0000,  0.0000)
  30 Cu     1.918241    4.422729   10.073582    ( 0.0000,  0.0000,  0.0000)
  31 Cu     1.888604    7.012133    9.913008    ( 0.0000,  0.0000,  0.0000)
  32 Cu     0.585794    5.777711   11.837172    ( 0.0000,  0.0000,  0.0000)
  33 Cu     3.202866    5.768120   11.865186    ( 0.0000,  0.0000,  0.0000)
  34 Cu     1.872537    4.447787   13.694437    ( 0.0000,  0.0000,  0.0000)
  35 Cu     1.884705    7.076146   13.699606    ( 0.0000,  0.0000,  0.0000)
  36 Cu     0.585886    5.766211   15.551662    ( 0.0000,  0.0000,  0.0000)
  37 Cu     3.180790    5.753294   15.546739    ( 0.0000,  0.0000,  0.0000)
  38 Cu     1.848322    4.436660   17.426934    ( 0.0000,  0.0000,  0.0000)
  39 Cu     1.893632    7.084955   17.416478    ( 0.0000,  0.0000,  0.0000)
  40 Cu     0.618005    5.754634   19.324613    ( 0.0000,  0.0000,  0.0000)
  41 Cu     3.224041    5.733525   19.180524    ( 0.0000,  0.0000,  0.0000)
  42 Cu     7.158981    4.447536    9.927030    ( 0.0000,  0.0000,  0.0000)
  43 Cu     7.111561    7.117661    9.913326    ( 0.0000,  0.0000,  0.0000)
  44 Cu     5.832761    5.777028   11.838435    ( 0.0000,  0.0000,  0.0000)
  45 Cu     7.123933    4.459284   13.707014    ( 0.0000,  0.0000,  0.0000)
  46 Cu     7.121043    7.063601   13.702915    ( 0.0000,  0.0000,  0.0000)
  47 Cu     5.824369    5.765812   15.562755    ( 0.0000,  0.0000,  0.0000)
  48 Cu     7.154152    4.465863   17.426675    ( 0.0000,  0.0000,  0.0000)
  49 Cu     7.138555    7.087228   17.420040    ( 0.0000,  0.0000,  0.0000)
  50 Cu     5.836816    5.762045   19.229817    ( 0.0000,  0.0000,  0.0000)
  51 Cu     4.504909    7.065694   10.010052    ( 0.0000,  0.0000,  0.0000)
  52 Cu     4.499022    7.063187   13.721481    ( 0.0000,  0.0000,  0.0000)
  53 Cu     4.506732    7.082660   17.385771    ( 0.0000,  0.0000,  0.0000)
  54 Cl     4.505115    4.457706   20.870794    ( 0.0000,  0.0000,  0.0000)
  55 Cl     3.186378    3.136704    8.381091    ( 0.0000,  0.0000,  0.0000)
  56 Cl     2.144704    1.881626   20.970290    ( 0.0000,  0.0000,  0.0000)
  57 Cl     5.546658    5.713025    8.281971    ( 0.0000,  0.0000,  0.0000)
  58 Cl     2.241276    6.784068   21.017748    ( 0.0000,  0.0000,  0.0000)
  59 Cl     5.449957    0.809900    8.234753    ( 0.0000,  0.0000,  0.0000)
  60 Cl     0.817056    0.560925    8.295652    ( 0.0000,  0.0000,  0.0000)
  61 Cl     6.874219    7.033573   20.956351    ( 0.0000,  0.0000,  0.0000)
  62 Cl     6.772482    2.138414   21.018118    ( 0.0000,  0.0000,  0.0000)
  63 Cl     0.918878    5.455859    8.233748    ( 0.0000,  0.0000,  0.0000)

Unit cell:
           periodic     x           y           z      points  spacing
  1. axis:    yes    7.851007    0.000000    0.000000    45     0.1655
  2. axis:    yes    2.617002    7.851007    0.000000    48     0.1636
  3. axis:    yes    0.000000    0.000000   30.683867   175     0.1753

  Lengths:   7.851007   8.275688  30.683867
  Angles:   90.000000  90.000000  71.565053

Effective grid spacing dv^(1/3) = 0.1710

     iter     time        total  log10-change:
                         energy  eigst   dens
iter:   1 09:54:44 -4456.768186  -4.11
iter:   2 09:55:37 -4456.762279  -5.08  -3.41
iter:   3 09:56:29 -4456.761785c -5.59  -3.65
iter:   4 09:57:21 -4456.761264c -5.92  -3.71
iter:   5 09:58:14 -4456.761021c -5.60  -3.84
iter:   6 09:59:10 -4456.760892c -6.23  -4.20c
iter:   7 10:00:01 -4456.760935c -6.95  -4.37c
iter:   8 10:00:46 -4456.760938c -7.56c -4.43c

Converged after 8 iterations.

Dipole moment: (-18.435073, -34.653805, -0.000228) |e|*Ang

Energy contributions relative to reference atoms: (reference = -2556707.893378)

Kinetic:       +512.198546
Potential:     -539.989472
External:        +0.000000
XC:            -4427.868049
Entropy (-ST):   -0.550661
Local:           -0.826633
Free energy:   -4457.036269
Extrapolated:  -4456.760938

Showing only first 2 kpts
 Kpt  Band  Eigenvalues  Occupancy
  0   330     -0.55021    1.90502
  0   331     -0.49326    1.83805
  0   332     -0.43149    1.71906
  0   333     -0.22173    0.85789

  1   330     -0.41116    1.66629
  1   331     -0.31979    1.33391
  1   332     -0.22657    0.88165
  1   333     -0.16990    0.61812

Fermi level: -0.25035

No gap

Forces in eV/Ang:
  0 Cu    0.00511    0.00435    0.00306
  1 Cu   -0.00247   -0.00277    0.00299
  2 Cu    0.00519    0.00057   -0.00185
  3 Cu    0.00243   -0.00023   -0.00363
  4 Cu    0.00261    0.00097   -0.00254
  5 Cu   -0.00227   -0.00032    0.00166
  6 Cu   -0.00298   -0.00518    0.00280
  7 Cu   -0.00132    0.00768    0.00127
  8 Cu   -0.00071   -0.00075   -0.00384
  9 Cu   -0.00252   -0.00008    0.00321
 10 Cu    0.00177   -0.00074   -0.00394
 11 Cu    0.00509    0.00816   -0.00245
 12 Cu    0.00390    0.00914   -0.00017
 13 Cu    0.00403   -0.00456   -0.00318
 14 Cu    0.00025   -0.00284    0.00513
 15 Cu   -0.00148    0.00137   -0.00541
 16 Cu    0.00066   -0.00501    0.00489
 17 Cu   -0.00080   -0.00855   -0.00052
 18 Cu    0.00018    0.00233   -0.00032
 19 Cu   -0.00713   -0.00491    0.00383
 20 Cu   -0.00290   -0.00223   -0.00852
 21 Cu    0.00222   -0.00481    0.00049
 22 Cu   -0.00366    0.00071    0.00358
 23 Cu   -0.00172    0.00266   -0.00593
 24 Cu    0.00164   -0.00264    0.00713
 25 Cu   -0.00227    0.00067   -0.00511
 26 Cu    0.00830   -0.00307    0.00193
 27 Cu    0.00295    0.00219    0.00812
 28 Cu    0.00713    0.00477   -0.00433
 29 Cu    0.00167    0.00445   -0.00234
 30 Cu   -0.00159   -0.00461    0.00211
 31 Cu    0.00061    0.00848   -0.00095
 32 Cu   -0.00077    0.00509   -0.00518
 33 Cu   -0.00816    0.00337   -0.00224
 34 Cu    0.00231   -0.00057    0.00598
 35 Cu    0.00145   -0.00128    0.00633
 36 Cu   -0.00017    0.00288   -0.00419
 37 Cu    0.00369   -0.00065   -0.00252
 38 Cu   -0.00189    0.00488   -0.00106
 39 Cu   -0.00383    0.00465    0.00300
 40 Cu   -0.00392   -0.00845   -0.00156
 41 Cu   -0.00019   -0.00190    0.00004
 42 Cu   -0.00505   -0.00860    0.00055
 43 Cu    0.00133   -0.00744   -0.00278
 44 Cu    0.00303    0.00526   -0.00320
 45 Cu   -0.00170    0.00076    0.00470
 46 Cu   -0.00247   -0.00083    0.00328
 47 Cu   -0.00248    0.00028    0.00468
 48 Cu    0.00223    0.00002   -0.00371
 49 Cu    0.00239    0.00275   -0.00325
 50 Cu   -0.00504   -0.00395   -0.00356
 51 Cu    0.00057    0.00083    0.00308
 52 Cu    0.00219    0.00045   -0.00082
 53 Cu   -0.00527   -0.00071    0.00143
 54 Cl    0.00393   -0.00065    0.01862
 55 Cl   -0.00385    0.00070   -0.02007
 56 Cl    0.00816    0.00029    0.00980
 57 Cl   -0.00809   -0.00007   -0.01173
 58 Cl    0.00799   -0.01151   -0.00226
 59 Cl   -0.00769    0.01160    0.00016
 60 Cl    0.00035   -0.00083   -0.00845
 61 Cl   -0.00053    0.00095    0.00663
 62 Cl    0.00138    0.00799   -0.00660
 63 Cl   -0.00162   -0.00789    0.00457