User:   thorkong@node025.cluster
Date:   Mon Oct 17 09:49:18 2022
Arch:   x86_64
Pid:    91798
Python: 3.10.5
gpaw:   /groups/kemi/thorkong/miniconda3/envs/gpaw22/lib/python3.10/site-packages/gpaw
_gpaw:  /groups/kemi/thorkong/miniconda3/envs/gpaw22/lib/python3.10/site-packages/
        _gpaw.cpython-310-x86_64-linux-gnu.so
ase:    /groups/kemi/thorkong/miniconda3/envs/gpaw22/lib/python3.10/site-packages/ase (version 3.22.1)
numpy:  /groups/kemi/thorkong/miniconda3/envs/gpaw22/lib/python3.10/site-packages/numpy (version 1.23.0)
scipy:  /groups/kemi/thorkong/miniconda3/envs/gpaw22/lib/python3.10/site-packages/scipy (version 1.8.1)
units:  Angstrom and eV
cores: 32
OpenMP: True
OMP_NUM_THREADS: 1

Input parameters:
  basis: dzp
  kpts: [4 4 1]
  mode: {ecut: 600.0,
         name: pw}
  xc: BEEF-vdW

System changes: positions, numbers, cell, pbc, initial_charges, initial_magmoms

Initialize ...

Cu-setup:
  name: Copper
  id: f1c4d45d90492f1bbfdcb091e8418fdf
  Z: 29.0
  valence: 11
  core: 18
  charge: 0.0
  file: /groups/kemi/thorkong/miniconda3/envs/gpaw22/share/gpaw/Cu.PBE.gz
  compensation charges: gauss, rc=0.33, lmax=2
  cutoffs: 2.06(filt), 2.43(core),
  valence states:
                energy  radius
    4s(1.00)    -4.609   1.164
    4p(0.00)    -0.698   1.164
    3d(10.00)    -5.039   1.058
    *s          22.603   1.164
    *p          26.513   1.164
    *d          22.172   1.058

  LCAO basis set for Cu:
    Name: dzp
    File: /groups/kemi/thorkong/miniconda3/envs/gpaw22/share/gpaw/Cu.dzp.basis.gz
    Number of radial functions: 5
    Number of spherical harmonics: 15
      l=0, rc=8.9688 Bohr: 4s-sz confined orbital
      l=2, rc=5.1719 Bohr: 3d-sz confined orbital
      l=0, rc=5.3281 Bohr: 4s-dz split-valence wave
      l=2, rc=3.1406 Bohr: 3d-dz split-valence wave
      l=1, rc=8.9688 Bohr: p-type Gaussian polarization

Cl-setup:
  name: Chlorine
  id: 726897f06f34e53cf8e33b5885a02604
  Z: 17.0
  valence: 7
  core: 10
  charge: 0.0
  file: /groups/kemi/thorkong/miniconda3/envs/gpaw22/share/gpaw/Cl.PBE.gz
  compensation charges: gauss, rc=0.25, lmax=2
  cutoffs: 1.40(filt), 1.49(core),
  valence states:
                energy  radius
    3s(2.00)   -20.689   0.794
    3p(5.00)    -8.594   0.794
    *s           6.523   0.794
    *p          18.617   0.794
    *d           0.000   0.794

  LCAO basis set for Cl:
    Name: dzp
    File: /groups/kemi/thorkong/miniconda3/envs/gpaw22/share/gpaw/Cl.dzp.basis.gz
    Number of radial functions: 5
    Number of spherical harmonics: 13
      l=0, rc=5.1719 Bohr: 3s-sz confined orbital
      l=1, rc=6.2656 Bohr: 3p-sz confined orbital
      l=0, rc=2.8281 Bohr: 3s-dz split-valence wave
      l=1, rc=3.5156 Bohr: 3p-dz split-valence wave
      l=2, rc=6.2656 Bohr: d-type Gaussian polarization

Reference energy: -2506488.095795

Spin-paired calculation

Convergence criteria:
 Maximum [total energy] change in last 3 cyles: 0.0005 eV / electron
 Maximum integral of absolute [dens]ity change: 0.0001 electrons / valence electron
 Maximum integral of absolute [eigenst]ate change: 4e-08 eV^2 / valence electron
 Maximum number of scf [iter]ations: 333
 (Square brackets indicate name in SCF output, whereas a 'c' in
 the SCF output indicates the quantity has converged.)

Symmetries present (total): 1

  ( 1  0  0)
  ( 0  1  0)
  ( 0  0  1)

16 k-points: 4 x 4 x 1 Monkhorst-Pack grid
8 k-points in the irreducible part of the Brillouin zone
       k-points in crystal coordinates                weights
   0:     0.12500000   -0.37500000    0.00000000          2/16
   1:     0.12500000   -0.12500000    0.00000000          2/16
   2:     0.12500000    0.12500000    0.00000000          2/16
   3:     0.12500000    0.37500000    0.00000000          2/16
   4:     0.37500000   -0.37500000    0.00000000          2/16
   5:     0.37500000   -0.12500000    0.00000000          2/16
   6:     0.37500000    0.12500000    0.00000000          2/16
   7:     0.37500000    0.37500000    0.00000000          2/16

Wave functions: Plane wave expansion
  Cutoff energy: 600.000 eV
  Number of coefficients (min, max): 54614, 54705
  Pulay-stress correction: 0.000000 eV/Ang^3 (de/decut=0.000000)
  Using FFTW library
  ScaLapack parameters: grid=2x2, blocksize=64
  Wavefunction extrapolation:
    Improved wavefunction reuse through dual PAW basis

Occupation numbers: Fermi-Dirac: width=0.1000 eV

Eigensolver
   Davidson(niter=2)

Densities:
  Coarse grid: 45*45*175 grid
  Fine grid: 90*90*350 grid
  Total Charge: 0.000000

Density mixing:
  Method: separate
  Backend: pulay
  Linear mixing parameter: 0.05
  Mixing with 5 old densities
  Damping of long wave oscillations: 50

Hamiltonian:
  XC and Coulomb potentials evaluated on a 90*90*350 grid
  Using the BEEF-vdW Exchange-Correlation functional
  External potential:
    NoExternalPotential

XC parameters: BEEF-vdW with 2 nearest neighbor stencil

Total number of cores used: 32
Parallelization over k-points: 8
Domain decomposition: 1 x 1 x 4
                      2 x 2 x 8 (xc only)

Number of atoms: 60
Number of atomic orbitals: 888
Number of bands in calculation: 386
Number of valence electrons: 636
Bands to converge: occupied

... initialized

Initializing position-dependent things.

Density initialized from atomic densities
Creating initial wave functions:
  386 bands from LCAO basis set

                                   Cl

                       Cl
            Cl          Cu    Cu     Cu
                   Cu     Cu    Cu
               Cu    Cu     Cu
                    Cu     Cu    Cu
                Cu    Cu    Cu
           Cu    Cu     Cu
                Cu     Cu    Cu
            Cu    Cu     Cu
       Cu     Cu        Cu    Cu     Cu
                   CCu    Cu    Cu
               Cu    Cu     Cu
                    Cu     Cu    Cu
                Cu    Cu    Cu
           Cu    Cu     Cu
                Cu     Cu    Cu
            Cu    Cu     Cu
       Cu     Cu    Cu          Cl
                     Cl

[...]

Positions:
   0 Cu     2.884162   -0.011729   10.033678    ( 0.0000,  0.0000,  0.0000)
   1 Cu     4.175487    2.207390    9.968025    ( 0.0000,  0.0000,  0.0000)
   2 Cu     0.268779    0.005327   10.035957    ( 0.0000,  0.0000,  0.0000)
   3 Cu     1.563079    2.250160   10.040939    ( 0.0000,  0.0000,  0.0000)
   4 Cu     2.905835    3.013667   12.132731    ( 0.0000,  0.0000,  0.0000)
   5 Cu     1.587256    0.751197   12.155983    ( 0.0000,  0.0000,  0.0000)
   6 Cu     5.501600    3.021336   12.124235    ( 0.0000,  0.0000,  0.0000)
   7 Cu     4.203724    0.772150   12.120007    ( 0.0000,  0.0000,  0.0000)
   8 Cu     5.509809    1.511263   14.273560    ( 0.0000,  0.0000,  0.0000)
   9 Cu     6.817749    3.779201   14.272965    ( 0.0000,  0.0000,  0.0000)
  10 Cu     2.895657    1.507106   14.282845    ( 0.0000,  0.0000,  0.0000)
  11 Cu     4.204745    3.779097   14.275593    ( 0.0000,  0.0000,  0.0000)
  12 Cu     2.898323   -0.006205   16.439255    ( 0.0000,  0.0000,  0.0000)
  13 Cu     4.202828    2.263486   16.411249    ( 0.0000,  0.0000,  0.0000)
  14 Cu     0.271173   -0.001683   16.415015    ( 0.0000,  0.0000,  0.0000)
  15 Cu     1.580207    2.267720   16.418056    ( 0.0000,  0.0000,  0.0000)
  16 Cu     2.898773    3.019517   18.534881    ( 0.0000,  0.0000,  0.0000)
  17 Cu     1.574509    0.759578   18.535562    ( 0.0000,  0.0000,  0.0000)
  18 Cu     5.517461    3.017381   18.557838    ( 0.0000,  0.0000,  0.0000)
  19 Cu     4.218777    0.769327   18.565915    ( 0.0000,  0.0000,  0.0000)
  20 Cu     5.482458    1.472743   20.721328    ( 0.0000,  0.0000,  0.0000)
  21 Cu     6.840691    3.826186   20.718062    ( 0.0000,  0.0000,  0.0000)
  22 Cu     2.872766    1.512688   20.651496    ( 0.0000,  0.0000,  0.0000)
  23 Cu     4.179191    3.794081   20.647081    ( 0.0000,  0.0000,  0.0000)
  24 Cu     5.533098    4.559222    9.954112    ( 0.0000,  0.0000,  0.0000)
  25 Cu     2.867968    4.534051   10.029210    ( 0.0000,  0.0000,  0.0000)
  26 Cu     4.213127    5.276205   12.126541    ( 0.0000,  0.0000,  0.0000)
  27 Cu     6.799507    5.268601   12.115394    ( 0.0000,  0.0000,  0.0000)
  28 Cu     8.121886    6.047639   14.244202    ( 0.0000,  0.0000,  0.0000)
  29 Cu     5.516666    6.046671   14.278211    ( 0.0000,  0.0000,  0.0000)
  30 Cu     5.511110    4.531825   16.410270    ( 0.0000,  0.0000,  0.0000)
  31 Cu     2.888634    4.532926   16.406558    ( 0.0000,  0.0000,  0.0000)
  32 Cu     4.204789    5.283723   18.534523    ( 0.0000,  0.0000,  0.0000)
  33 Cu     6.814487    5.265823   18.565627    ( 0.0000,  0.0000,  0.0000)
  34 Cu     8.131354    6.045561   20.650058    ( 0.0000,  0.0000,  0.0000)
  35 Cu     5.501317    6.065983   20.648502    ( 0.0000,  0.0000,  0.0000)
  36 Cu     5.515639   -0.030915   10.037620    ( 0.0000,  0.0000,  0.0000)
  37 Cu     6.838300    2.241957   10.038361    ( 0.0000,  0.0000,  0.0000)
  38 Cu     8.121401    3.021170   12.150082    ( 0.0000,  0.0000,  0.0000)
  39 Cu     6.815400    0.755845   12.149679    ( 0.0000,  0.0000,  0.0000)
  40 Cu     8.132578    1.510559   14.278234    ( 0.0000,  0.0000,  0.0000)
  41 Cu     9.440817    3.775125   14.268637    ( 0.0000,  0.0000,  0.0000)
  42 Cu     5.504098   -0.004613   16.403245    ( 0.0000,  0.0000,  0.0000)
  43 Cu     6.816730    2.264183   16.407976    ( 0.0000,  0.0000,  0.0000)
  44 Cu     8.113114    3.026556   18.553628    ( 0.0000,  0.0000,  0.0000)
  45 Cu     6.806143    0.763216   18.553497    ( 0.0000,  0.0000,  0.0000)
  46 Cu     8.148557    1.500971   20.654047    ( 0.0000,  0.0000,  0.0000)
  47 Cu     9.453486    3.785452   20.645604    ( 0.0000,  0.0000,  0.0000)
  48 Cu     8.143342    4.522704   10.030314    ( 0.0000,  0.0000,  0.0000)
  49 Cu     9.444142    5.279553   12.148158    ( 0.0000,  0.0000,  0.0000)
  50 Cu    10.750397    6.043904   14.266863    ( 0.0000,  0.0000,  0.0000)
  51 Cu     8.125450    4.536072   16.403731    ( 0.0000,  0.0000,  0.0000)
  52 Cu     9.432612    5.289470   18.528114    ( 0.0000,  0.0000,  0.0000)
  53 Cu    10.748665    6.030225   20.646267    ( 0.0000,  0.0000,  0.0000)
  54 Cl     6.147134    2.664301   22.667231    ( 0.0000,  0.0000,  0.0000)
  55 Cl     4.853098    3.366848    8.014863    ( 0.0000,  0.0000,  0.0000)
  56 Cl    10.101076    4.907838   23.055936    ( 0.0000,  0.0000,  0.0000)
  57 Cl     0.915929    1.127744    7.628448    ( 0.0000,  0.0000,  0.0000)
  58 Cl     8.857645    5.743262    7.623330    ( 0.0000,  0.0000,  0.0000)
  59 Cl     2.077612    0.292715   23.096412    ( 0.0000,  0.0000,  0.0000)

Unit cell:
           periodic     x           y           z      points  spacing
  1. axis:    yes    7.851007    0.000000    0.000000    45     0.1511
  2. axis:    yes    3.925503    6.799171    0.000000    45     0.1511
  3. axis:    yes    0.000000    0.000000   30.683867   175     0.1753

  Lengths:   7.851007   7.851006  30.683867
  Angles:   90.000000  90.000000  60.000001

Effective grid spacing dv^(1/3) = 0.1666

     iter     time        total  log10-change:
                         energy  eigst   dens
iter:   1 09:54:23 -4482.208419
iter:   2 09:55:24 -4462.624751  +0.58  -0.87
[...]
iter:  21 10:10:48 -4309.254298c -5.11  -3.31
iter:  22 10:11:32 -4309.252722c -5.42  -3.38
iter:  23 10:12:17 -4309.252257c -5.22  -3.50
iter:  24 10:13:02 -4309.252200c -6.08  -3.73
iter:  25 10:13:47 -4309.252127c -5.91  -3.75
iter:  26 10:14:31 -4309.252149c -6.57  -3.82
iter:  27 10:15:16 -4309.252087c -6.31  -3.90
iter:  28 10:16:00 -4309.252041c -6.58  -4.24c
iter:  29 10:16:48 -4309.252052c -6.74  -4.33c
iter:  30 10:18:15 -4309.252045c -7.53c -4.49c

Converged after 30 iterations.

Dipole moment: (-17.217384, -10.523391, -0.027230) |e|*Ang

Energy contributions relative to reference atoms: (reference = -2506488.095795)

Kinetic:       +407.470169
Potential:     -453.325723
External:        +0.000000
XC:            -4262.422700
Entropy (-ST):   -0.551693
Local:           -0.697944
Free energy:   -4309.527891
Extrapolated:  -4309.252045

Showing only first 2 kpts
 Kpt  Band  Eigenvalues  Occupancy
  0   316     -0.47408    1.19061
  0   317     -0.41007    0.87360
  0   318     -0.35243    0.60704
  0   319     -0.26396    0.30496

  1   316     -0.97888    1.99131
  1   317     -0.85623    1.97067
  1   318     -0.73247    1.90239
  1   319     -0.40966    0.87156

Fermi level: -0.43549

No gap

Forces in eV/Ang:
  0 Cu    0.00321    0.00807   -0.22746
  1 Cu    0.08463    0.14761   -0.15008
  2 Cu    0.11566    0.07556   -0.62058
  3 Cu   -0.00489   -0.11239   -0.62595
  4 Cu   -0.08235   -0.04375   -0.09996
  5 Cu    0.01040   -0.00666   -0.00552
  6 Cu    0.03468   -0.01796   -0.01751
  7 Cu    0.00860   -0.03277   -0.06170
  8 Cu    0.00623    0.01162    0.00885
  9 Cu   -0.00441   -0.01298    0.00370
 10 Cu   -0.00209   -0.00167    0.00990
 11 Cu    0.00523   -0.00705   -0.05848
 12 Cu   -0.01325    0.00772   -0.03989
 13 Cu    0.00528    0.01215   -0.00049
 14 Cu    0.01862    0.01081   -0.04928
 15 Cu    0.00544   -0.01352   -0.04923
 16 Cu   -0.05437   -0.03374    0.11142
 17 Cu    0.01750   -0.01202    0.00155
 18 Cu   -0.03538    0.02282    0.02436
 19 Cu   -0.03860   -0.01527    0.06473
 20 Cu    0.06882    0.15161    0.15782
 21 Cu   -0.08751   -0.14675    0.15801
 22 Cu   -0.02650   -0.12373    0.54361
 23 Cu    0.09577   -0.07316    0.20978
 24 Cu   -0.06804   -0.13911   -0.13574
 25 Cu    0.08172   -0.04963   -0.19801
 26 Cu   -0.01015    0.08669   -0.08886
 27 Cu    0.03386    0.01376   -0.06211
 28 Cu    0.01331   -0.00795    0.04141
 29 Cu    0.00325   -0.00658    0.02081
 30 Cu   -0.00727   -0.01568   -0.00769
 31 Cu    0.01028   -0.01512    0.00718
 32 Cu    0.01336    0.06605    0.11259
 33 Cu   -0.00961    0.03876    0.06077
 34 Cu    0.00103   -0.00494    0.21442
 35 Cu    0.10425    0.09369    0.73385
 36 Cu   -0.10355   -0.07491   -0.70415
 37 Cu   -0.09305    0.06767   -0.20185
 38 Cu    0.04899    0.03546   -0.11539
 39 Cu   -0.01876   -0.06784   -0.11609
 40 Cu   -0.01024    0.01053   -0.01109
 41 Cu   -0.00850    0.01142    0.04896
 42 Cu   -0.00415    0.00707   -0.01477
 43 Cu   -0.00682    0.00383    0.05962
 44 Cu    0.08468    0.03862    0.09700
 45 Cu    0.01468   -0.08880    0.09227
 46 Cu   -0.06981    0.04251    0.22932
 47 Cu    0.00949    0.11693    0.63062
 48 Cu    0.02382    0.12462   -0.56127
 49 Cu   -0.01562    0.00952    0.00204
 50 Cu   -0.02169   -0.01089    0.05726
 51 Cu   -0.00152   -0.00268   -0.01166
 52 Cu   -0.00811   -0.00040    0.00821
 53 Cu   -0.11742   -0.07526    0.62763
 54 Cl   -0.01374   -0.01274   -0.49467
 55 Cl    0.01038    0.02188    0.48828
 56 Cl   -0.01735   -0.00935   -1.64670
 57 Cl    0.00718    0.00333    1.64999
 58 Cl    0.00551   -0.03457    1.64154
 59 Cl    0.00437    0.03069   -1.66918

System changes: positions

[...]

Density initialized from wave functions

[...]

                       Clu
            Cl                Cu     Cu
                   Cu     Cu    Cu
               Cu    Cu     Cu
                    Cu     Cu    Cu
               Cu     Cu     Cu
           Cu    Cu     Cu
                Cu     Cu    Cu
            Cu    Cu     Cu
       Cu     Cu    Cu  Cu    Cu     Cu
                   Cu     Cu    Cu
               Cu    Cu     Cu
                    Cu     Cu    Cu
               Cu     Cu     Cu
           Cu    Cu     Cu
                Cu     Cu    Cu
            Cu    Cu     Cu
                                Cl
       Cu     Cu    Cul

[...]

                       Clu    Cu     Cu
            Cl            Cu    Cu
                   Cu
               Cu   CCu    CCu   Cu

               Cu     Cu     Cu
           Cu   CCu    CCu   Cu

            Cu    Cu    CCu   Cu     Cu
       Cu     Cu   CCu    Cu    Cu

               Cu   CCu    CCu   Cu
               Cu     Cu     Cu

           Cu   CCu    CCu   Cu

            Cu    Cu     Cu     Cl
       Cu     Cu    Cul

[...]

           Cu   CCu    CCu   Cu
                         Cu
            Cu    Cu            Cl
       Cu     Cu    Cul

[...]

               Cu   CCu    CCu   Cu
                      Cu     Cu
               Cu
           Cu   CCu    CCu   Cu

[...]

                       Clu    Cu     Cu
            Cl            Cu    Cu
                   Cu
               Cu   CCu    CCu   Cu
                             Cu
               Cu     Cu
           Cu   CCu    CCu   Cu

[...]

               Cu   CCu    CCu   Cu
                      Cu
               Cu            Cu
           Cu   CCu    CCu   Cu
                         Cu
            Cu    Cu            Cl
       Cu     Cu    Cul

[...]

                       Clu    Cu     Cu
            Cl            Cu    Cu
                   Cu
               Cu   CCu    CCu   Cu
               Cu            Cu
                      Cu
           Cu   CCu    CCu   Cu

[...]

               Cu   CCu    CCu   Cu
                      Cu
               Cu            Cu
           Cu   CCu    CCu   Cu

[...]

                       Clu    Cu     Cu
            Cl     Cu     Cu    Cu

[...]

                       Clu    Cu     Cu
           Cl             Cu
                   Cu           Cu
               Cu   CCu    CCu   Cu

[...]

                       Clu    Cu     Cu
           Cl             Cu    Cu
                   Cu
               Cu   CCu    CCu   Cu

[...]

           Cu   CCu    CCu   Cu
                         Cu
            Cu    Cu            Cl
       Cu     Cu    Cul

[...]

                       Clu    Cu     Cu
           Cl      Cu     Cu    Cu

[...]

                      ClCu    Cu     Cu
           Cl      Cu     Cu    Cu

[...]

            Cu    Cu     Cu      Cl
       Cu     Cu    Cul

[...]

            Cu    Cu     Cu      Cl
       Cu     Cu    CuCl

[...]

                                  Cl
                      Cl
                        Cu    Cu     Cu
           Cl      Cu     Cu    Cu

[...]

           Cu    Cu    CCu   Cu

            Cu    Cu     Cu       Cl
       Cu     Cu    Cu
                      Cl
          Cl

[...]

               Cu   CCu    CCu   Cu
                Cu           Cu
                      Cu
           Cu    Cu    CCu   Cu

[...]

                Cu    Cu     Cu
           Cu   CCu    CCu   Cu

[...]

            Cu    Cu     Cu      Cl
       Cu     Cu    Cu
                      Cl
          Cl

[...]

                                 Cl
                      Cl
                        Cu    Cu     Cu
           Cl      Cu     Cu    Cu

[...]

               Cu   CCu    CCu   Cu
                Cu    Cu    Cu

           Cu   CCu    CCu   Cu

[...]

System changes: positions

Initializing position-dependent things.

Density initialized from wave functions

[...]

                      ClCu    Cu     Cu
           Cl      Cu     Cu    Cu

               Cu   CCu    CCu   Cu
                Cu           Cu
                      Cu
           Cu   CCu    CCu   Cu

            Cu    Cu    CCu   Cu     Cu
       Cu     Cu   CCu    Cu    Cu

               Cu   CCu    CCu   Cu
                      Cu
               Cu           Cu
           Cu   CCu    CCu   Cu

            Cu    Cu     Cu      Cl
       Cu     Cu    CuCl

           Cl

Positions:
   0 Cu     2.888178    0.016098   10.018774    ( 0.0000,  0.0000,  0.0000)
   1 Cu     4.179645    2.284602   10.016049    ( 0.0000,  0.0000,  0.0000)
   2 Cu     0.256060    0.018173   10.012573    ( 0.0000,  0.0000,  0.0000)
   3 Cu     1.570952    2.296610   10.017926    ( 0.0000,  0.0000,  0.0000)
   4 Cu     2.884055    3.039355   12.109254    ( 0.0000,  0.0000,  0.0000)
   5 Cu     1.573436    0.770046   12.159363    ( 0.0000,  0.0000,  0.0000)
   6 Cu     5.501878    3.034807   12.163224    ( 0.0000,  0.0000,  0.0000)
   7 Cu     4.190416    0.773017   12.111136    ( 0.0000,  0.0000,  0.0000)
   8 Cu     5.506602    1.512915   14.272610    ( 0.0000,  0.0000,  0.0000)
   9 Cu     6.814006    3.782934   14.276113    ( 0.0000,  0.0000,  0.0000)
  10 Cu     2.887990    1.518210   14.268177    ( 0.0000,  0.0000,  0.0000)
  11 Cu     4.195733    3.783642   14.270980    ( 0.0000,  0.0000,  0.0000)
  12 Cu     2.889102   -0.010903   16.410347    ( 0.0000,  0.0000,  0.0000)
  13 Cu     4.197848    2.255969   16.415197    ( 0.0000,  0.0000,  0.0000)
  14 Cu     0.273228   -0.010603   16.412041    ( 0.0000,  0.0000,  0.0000)
  15 Cu     1.581818    2.260066   16.415076    ( 0.0000,  0.0000,  0.0000)
  16 Cu     2.897812    3.000209   18.577067    ( 0.0000,  0.0000,  0.0000)
  17 Cu     1.594458    0.730270   18.524982    ( 0.0000,  0.0000,  0.0000)
  18 Cu     5.516811    3.001264   18.525920    ( 0.0000,  0.0000,  0.0000)
  19 Cu     4.207311    0.735629   18.573938    ( 0.0000,  0.0000,  0.0000)
  20 Cu     5.525487    1.473231   20.665980    ( 0.0000,  0.0000,  0.0000)
  21 Cu     6.838128    3.751152   20.667960    ( 0.0000,  0.0000,  0.0000)
  22 Cu     2.914188    1.490305   20.672962    ( 0.0000,  0.0000,  0.0000)
  23 Cu     4.208591    3.753066   20.669588    ( 0.0000,  0.0000,  0.0000)
  24 Cu     5.493146    4.562903   10.017237    ( 0.0000,  0.0000,  0.0000)
  25 Cu     2.884459    4.551814   10.011870    ( 0.0000,  0.0000,  0.0000)
  26 Cu     4.190508    5.302802   12.109744    ( 0.0000,  0.0000,  0.0000)
  27 Cu     6.807585    5.301366   12.111237    ( 0.0000,  0.0000,  0.0000)
  28 Cu     8.118649    6.052619   14.267423    ( 0.0000,  0.0000,  0.0000)
  29 Cu     5.505560    6.044639   14.267489    ( 0.0000,  0.0000,  0.0000)
  30 Cu     5.504382    4.524752   16.417177    ( 0.0000,  0.0000,  0.0000)
  31 Cu     2.892390    4.521290   16.415073    ( 0.0000,  0.0000,  0.0000)
  32 Cu     4.204968    5.268581   18.578149    ( 0.0000,  0.0000,  0.0000)
  33 Cu     6.825529    5.264315   18.572331    ( 0.0000,  0.0000,  0.0000)
  34 Cu     8.127059    6.020443   20.661475    ( 0.0000,  0.0000,  0.0000)
  35 Cu     5.521321    6.005908   20.670767    ( 0.0000,  0.0000,  0.0000)
  36 Cu     5.497624    0.030089   10.022430    ( 0.0000,  0.0000,  0.0000)
  37 Cu     6.810956    2.282729   10.024056    ( 0.0000,  0.0000,  0.0000)
  38 Cu     8.118074    3.036701   12.116899    ( 0.0000,  0.0000,  0.0000)
  39 Cu     6.811447    0.767494   12.115037    ( 0.0000,  0.0000,  0.0000)
  40 Cu     8.120792    1.517841   14.273276    ( 0.0000,  0.0000,  0.0000)
  41 Cu     9.432019    3.781488   14.271358    ( 0.0000,  0.0000,  0.0000)
  42 Cu     5.503194   -0.007268   16.415261    ( 0.0000,  0.0000,  0.0000)
  43 Cu     6.818784    2.253353   16.417254    ( 0.0000,  0.0000,  0.0000)
  44 Cu     8.134506    2.999180   18.575118    ( 0.0000,  0.0000,  0.0000)
  45 Cu     6.826014    0.731323   18.574409    ( 0.0000,  0.0000,  0.0000)
  46 Cu     8.135842    1.482077   20.666941    ( 0.0000,  0.0000,  0.0000)
  47 Cu     9.446724    3.741367   20.674077    ( 0.0000,  0.0000,  0.0000)
  48 Cu     8.103984    4.545697   10.020687    ( 0.0000,  0.0000,  0.0000)
  49 Cu     9.424644    5.303396   12.160954    ( 0.0000,  0.0000,  0.0000)
  50 Cu    10.738831    6.047855   14.273759    ( 0.0000,  0.0000,  0.0000)
  51 Cu     8.123726    4.525258   16.413966    ( 0.0000,  0.0000,  0.0000)
  52 Cu     9.443351    5.267491   18.527571    ( 0.0000,  0.0000,  0.0000)
  53 Cu    10.760558    6.016401   20.680644    ( 0.0000,  0.0000,  0.0000)
  54 Cl     5.535455    2.985281   22.572526    ( 0.0000,  0.0000,  0.0000)
  55 Cl     5.492330    3.045028    8.114557    ( 0.0000,  0.0000,  0.0000)
  56 Cl     9.426830    5.268883   22.576495    ( 0.0000,  0.0000,  0.0000)
  57 Cl     1.566546    0.779527    8.111549    ( 0.0000,  0.0000,  0.0000)
  58 Cl     9.402943    5.321087    8.114735    ( 0.0000,  0.0000,  0.0000)
  59 Cl     1.596212    0.727695   22.574825    ( 0.0000,  0.0000,  0.0000)

Unit cell:
           periodic     x           y           z      points  spacing
  1. axis:    yes    7.851007    0.000000    0.000000    45     0.1511
  2. axis:    yes    3.925503    6.799171    0.000000    45     0.1511
  3. axis:    yes    0.000000    0.000000   30.683867   175     0.1753

  Lengths:   7.851007   7.851006  30.683867
  Angles:   90.000000  90.000000  60.000001

Effective grid spacing dv^(1/3) = 0.1666

     iter     time        total  log10-change:
                         energy  eigst   dens
iter:   1 20:17:31 -4311.598493  -4.32
iter:   2 20:18:18 -4311.597710  -5.14  -3.55
iter:   3 20:19:04 -4311.596437c -5.67  -3.63
iter:   4 20:19:49 -4311.596021c -6.69  -3.85
iter:   5 20:20:36 -4311.595961c -6.09  -4.00c
iter:   6 20:21:21 -4311.595924c -6.58  -4.23c
iter:   7 20:22:07 -4311.595921c -7.38  -4.45c
iter:   8 20:22:53 -4311.595918c -7.02  -4.52c
iter:   9 20:23:39 -4311.595916c -7.86c -4.75c

Converged after 9 iterations.

Dipole moment: (-15.756043, -10.107821, 0.000907) |e|*Ang

Energy contributions relative to reference atoms: (reference = -2506488.095795)

Kinetic:       +437.637402
Potential:     -477.183265
External:        +0.000000
XC:            -4271.105280
Entropy (-ST):   -0.523309
Local:           -0.683118
Free energy:   -4311.857571
Extrapolated:  -4311.595916

Showing only first 2 kpts
 Kpt  Band  Eigenvalues  Occupancy
  0   316      0.22902    1.13795
  0   317      0.25081    1.02989
  0   318      0.28343    0.86757
  0   319      0.48001    0.19380

  1   316     -0.26448    1.98917
  1   317     -0.13254    1.96006
  1   318     -0.11719    1.95359
  1   319      0.36321    0.51303

Fermi level: 0.25679

No gap

Forces in eV/Ang:
  0 Cu   -0.00318   -0.00037   -0.00630
  1 Cu    0.00755   -0.00299   -0.00384
  2 Cu    0.00173   -0.00671    0.00606
  3 Cu    0.00467   -0.00504   -0.00442
  4 Cu    0.00030   -0.01021    0.00181
  5 Cu    0.00867   -0.00293   -0.00233
  6 Cu   -0.00545    0.00409   -0.00610
  7 Cu    0.00664   -0.00411    0.00406
  8 Cu    0.00034   -0.00006   -0.00178
  9 Cu    0.00042   -0.00558   -0.00837
 10 Cu   -0.00142   -0.00578    0.01300
 11 Cu   -0.00425    0.00150   -0.00020
 12 Cu    0.01041   -0.00418    0.00644
 13 Cu    0.00204    0.00549   -0.00546
 14 Cu   -0.00265    0.00203    0.01018
 15 Cu   -0.00377   -0.00100    0.00409
 16 Cu    0.00345    0.00068    0.00183
 17 Cu   -0.01077    0.01607    0.00288
 18 Cu   -0.00624   -0.00156    0.00279
 19 Cu   -0.00457    0.00071   -0.00295
 20 Cu   -0.01736    0.00001    0.00844
 21 Cu   -0.00366    0.00711    0.00616
 22 Cu   -0.01173   -0.00737   -0.00257
 23 Cu   -0.00969    0.00049    0.01186
 24 Cu    0.01249   -0.00659   -0.00365
 25 Cu    0.00205   -0.00472    0.00431
 26 Cu    0.00263    0.00215   -0.00286
 27 Cu    0.00448   -0.00020    0.00368
 28 Cu    0.00588   -0.00611    0.01233
 29 Cu   -0.00235    0.00457    0.00698
 30 Cu    0.00510    0.00441   -0.00562
 31 Cu   -0.00224   -0.00022    0.00716
 32 Cu    0.00404   -0.00320    0.00109
 33 Cu   -0.00826    0.00539    0.00339
 34 Cu    0.00427    0.00455    0.01698
 35 Cu   -0.00500    0.00268    0.00079
 36 Cu   -0.00088   -0.00062   -0.01288
 37 Cu    0.00412    0.00005   -0.01191
 38 Cu    0.00087   -0.00017   -0.01114
 39 Cu   -0.00502    0.00254   -0.00658
 40 Cu    0.00324   -0.00248   -0.00393
 41 Cu    0.00118   -0.00409    0.00053
 42 Cu    0.01338   -0.00203    0.00191
 43 Cu   -0.00362    0.00504   -0.00590
 44 Cu   -0.00507    0.00562    0.00211
 45 Cu   -0.00402    0.00323    0.00756
 46 Cu   -0.01894    0.01710    0.00207
 47 Cu   -0.00055    0.00284   -0.00339
 48 Cu    0.00910    0.00894   -0.01010
 49 Cu    0.00380   -0.00469   -0.00322
 50 Cu    0.00162   -0.00077   -0.00439
 51 Cu    0.00536   -0.00779    0.00015
 52 Cu   -0.00987   -0.00049    0.00224
 53 Cu    0.00004    0.00564   -0.01766
 54 Cl   -0.00896    0.00735   -0.01057
 55 Cl   -0.00183   -0.00087    0.00281
 56 Cl    0.01708   -0.00806   -0.00619
 57 Cl   -0.00066    0.00021   -0.00045
 58 Cl    0.00909   -0.00467   -0.00136
 59 Cl   -0.00003   -0.00322   -0.00475