User:   thorkong@node026.cluster
Date:   Fri Oct 14 15:30:36 2022
Arch:   x86_64
Pid:    19916
Python: 3.10.5
gpaw:   /groups/kemi/thorkong/miniconda3/envs/gpaw22/lib/python3.10/site-packages/gpaw
_gpaw:  /groups/kemi/thorkong/miniconda3/envs/gpaw22/lib/python3.10/site-packages/
        _gpaw.cpython-310-x86_64-linux-gnu.so
ase:    /groups/kemi/thorkong/miniconda3/envs/gpaw22/lib/python3.10/site-packages/ase (version 3.22.1)
numpy:  /groups/kemi/thorkong/miniconda3/envs/gpaw22/lib/python3.10/site-packages/numpy (version 1.23.0)
scipy:  /groups/kemi/thorkong/miniconda3/envs/gpaw22/lib/python3.10/site-packages/scipy (version 1.8.1)
units:  Angstrom and eV
cores: 32
OpenMP: True
OMP_NUM_THREADS: 1

Input parameters:
  basis: dzp
  kpts: [4 4 1]
  mode: {ecut: 600.0,
         name: pw}
  xc: BEEF-vdW

System changes: positions, numbers, cell, pbc, initial_charges, initial_magmoms

Initialize ...

Cu-setup:
  name: Copper
  id: f1c4d45d90492f1bbfdcb091e8418fdf
  Z: 29.0
  valence: 11
  core: 18
  charge: 0.0
  file: /groups/kemi/thorkong/miniconda3/envs/gpaw22/share/gpaw/Cu.PBE.gz
  compensation charges: gauss, rc=0.33, lmax=2
  cutoffs: 2.06(filt), 2.43(core),
  valence states:
                energy  radius
    4s(1.00)    -4.609   1.164
    4p(0.00)    -0.698   1.164
    3d(10.00)    -5.039   1.058
    *s          22.603   1.164
    *p          26.513   1.164
    *d          22.172   1.058

  LCAO basis set for Cu:
    Name: dzp
    File: /groups/kemi/thorkong/miniconda3/envs/gpaw22/share/gpaw/Cu.dzp.basis.gz
    Number of radial functions: 5
    Number of spherical harmonics: 15
      l=0, rc=8.9688 Bohr: 4s-sz confined orbital
      l=2, rc=5.1719 Bohr: 3d-sz confined orbital
      l=0, rc=5.3281 Bohr: 4s-dz split-valence wave
      l=2, rc=3.1406 Bohr: 3d-dz split-valence wave
      l=1, rc=8.9688 Bohr: p-type Gaussian polarization

Cl-setup:
  name: Chlorine
  id: 726897f06f34e53cf8e33b5885a02604
  Z: 17.0
  valence: 7
  core: 10
  charge: 0.0
  file: /groups/kemi/thorkong/miniconda3/envs/gpaw22/share/gpaw/Cl.PBE.gz
  compensation charges: gauss, rc=0.25, lmax=2
  cutoffs: 1.40(filt), 1.49(core),
  valence states:
                energy  radius
    3s(2.00)   -20.689   0.794
    3p(5.00)    -8.594   0.794
    *s           6.523   0.794
    *p          18.617   0.794
    *d           0.000   0.794

  LCAO basis set for Cl:
    Name: dzp
    File: /groups/kemi/thorkong/miniconda3/envs/gpaw22/share/gpaw/Cl.dzp.basis.gz
    Number of radial functions: 5
    Number of spherical harmonics: 13
      l=0, rc=5.1719 Bohr: 3s-sz confined orbital
      l=1, rc=6.2656 Bohr: 3p-sz confined orbital
      l=0, rc=2.8281 Bohr: 3s-dz split-valence wave
      l=1, rc=3.5156 Bohr: 3p-dz split-valence wave
      l=2, rc=6.2656 Bohr: d-type Gaussian polarization

Reference energy: -3341984.127726

Spin-paired calculation

Convergence criteria:
 Maximum [total energy] change in last 3 cyles: 0.0005 eV / electron
 Maximum integral of absolute [dens]ity change: 0.0001 electrons / valence electron
 Maximum integral of absolute [eigenst]ate change: 4e-08 eV^2 / valence electron
 Maximum number of scf [iter]ations: 333
 (Square brackets indicate name in SCF output, whereas a 'c' in
 the SCF output indicates the quantity has converged.)

Symmetries present (total): 1

  ( 1  0  0)
  ( 0  1  0)
  ( 0  0  1)

16 k-points: 4 x 4 x 1 Monkhorst-Pack grid
8 k-points in the irreducible part of the Brillouin zone
       k-points in crystal coordinates                weights
   0:     0.12500000   -0.37500000    0.00000000          2/16
   1:     0.12500000   -0.12500000    0.00000000          2/16
   2:     0.12500000    0.12500000    0.00000000          2/16
   3:     0.12500000    0.37500000    0.00000000          2/16
   4:     0.37500000   -0.37500000    0.00000000          2/16
   5:     0.37500000   -0.12500000    0.00000000          2/16
   6:     0.37500000    0.12500000    0.00000000          2/16
   7:     0.37500000    0.37500000    0.00000000          2/16

Wave functions: Plane wave expansion
  Cutoff energy: 600.000 eV
  Number of coefficients (min, max): 66642, 66743
  Pulay-stress correction: 0.000000 eV/Ang^3 (de/decut=0.000000)
  Using FFTW library
  ScaLapack parameters: grid=2x2, blocksize=64
  Wavefunction extrapolation:
    Improved wavefunction reuse through dual PAW basis

Occupation numbers: Fermi-Dirac: width=0.1000 eV

Eigensolver
   Davidson(niter=2)

Densities:
  Coarse grid: 45*42*196 grid
  Fine grid: 90*84*392 grid
  Total Charge: 0.000000

Density mixing:
  Method: separate
  Backend: pulay
  Linear mixing parameter: 0.05
  Mixing with 5 old densities
  Damping of long wave oscillations: 50

Hamiltonian:
  XC and Coulomb potentials evaluated on a 90*84*392 grid
  Using the BEEF-vdW Exchange-Correlation functional
  External potential:
    NoExternalPotential

XC parameters: BEEF-vdW with 2 nearest neighbor stencil

Total number of cores used: 32
Parallelization over k-points: 8
Domain decomposition: 1 x 1 x 4
                      2 x 2 x 8 (xc only)

Number of atoms: 80
Number of atomic orbitals: 1184
Number of bands in calculation: 513
Number of valence electrons: 848
Bands to converge: occupied

... initialized

Initializing position-dependent things.

Density initialized from atomic densities
Creating initial wave functions:
  513 bands from LCAO basis set

 |    |     Cl    Cl     |
 |Cl  |  Cl  CuCu    Cu  |
 |  CuCu   CCu   CuCu    |
 |    |  Cu    Cu    Cu  |
 |Cu  Cu    CuCu   Cu    |
 |  Cu|  CCu   CuCu  Cu  |
 |Cu  CuCu  CuCu   Cu    |
 |  Cu|  CuCuCuCuCu  Cu  |
 |Cu  | Cu    Cu         |
 |  CuCu CuCCu CuCuCuCu  |
 |Cu  |       Cu         |
 |  CuCu CCuCu CuCuCuCu  |
 |    |Cu    Cu    Cu    |
 |CuCuCuCuCuCuCuCCuCu    |
 |    |       Cl     Cl  |

Positions:
   0 Cu     2.893249   -0.009013   10.079935    ( 0.0000,  0.0000,  0.0000)
   1 Cu     1.591035    1.857611   11.262661    ( 0.0000,  0.0000,  0.0000)
   2 Cu     4.201834    1.841809   11.295676    ( 0.0000,  0.0000,  0.0000)
   3 Cu     0.277666   -0.009469   10.084997    ( 0.0000,  0.0000,  0.0000)
   4 Cu     0.277849    0.003618   12.626767    ( 0.0000,  0.0000,  0.0000)
   5 Cu     4.202668    1.862513   13.923708    ( 0.0000,  0.0000,  0.0000)
   6 Cu     1.586463    1.852775   13.921192    ( 0.0000,  0.0000,  0.0000)
   7 Cu     2.889400    0.003545   12.629227    ( 0.0000,  0.0000,  0.0000)
   8 Cu     2.895466   -0.000271   15.229461    ( 0.0000,  0.0000,  0.0000)
   9 Cu     1.588247    1.851385   16.545856    ( 0.0000,  0.0000,  0.0000)
  10 Cu     4.201591    1.852496   16.545727    ( 0.0000,  0.0000,  0.0000)
  11 Cu     0.277809    0.001734   15.236454    ( 0.0000,  0.0000,  0.0000)
  12 Cu     0.278211    0.000883   17.850829    ( 0.0000,  0.0000,  0.0000)
  13 Cu     4.204728    1.850775   19.171325    ( 0.0000,  0.0000,  0.0000)
  14 Cu     1.584458    1.852521   19.171085    ( 0.0000,  0.0000,  0.0000)
  15 Cu     2.894601    0.002325   17.849783    ( 0.0000,  0.0000,  0.0000)
  16 Cu     2.894236    0.012687   20.468701    ( 0.0000,  0.0000,  0.0000)
  17 Cu     1.584204    1.855644   21.820509    ( 0.0000,  0.0000,  0.0000)
  18 Cu     4.205662    1.855442   21.821840    ( 0.0000,  0.0000,  0.0000)
  19 Cu     0.277320    0.003097   20.469516    ( 0.0000,  0.0000,  0.0000)
  20 Cu     0.282256    0.008318   23.110120    ( 0.0000,  0.0000,  0.0000)
  21 Cu     4.232873    1.841925   24.430560    ( 0.0000,  0.0000,  0.0000)
  22 Cu     1.555398    1.844008   24.424642    ( 0.0000,  0.0000,  0.0000)
  23 Cu     2.895568   -0.008221   23.079835    ( 0.0000,  0.0000,  0.0000)
  24 Cu     2.864475    3.710782    9.962758    ( 0.0000,  0.0000,  0.0000)
  25 Cu     1.591976    5.541691   11.280182    ( 0.0000,  0.0000,  0.0000)
  26 Cu     4.202041    5.558211   11.310184    ( 0.0000,  0.0000,  0.0000)
  27 Cu     0.277822    3.707697   10.093271    ( 0.0000,  0.0000,  0.0000)
  28 Cu     0.277595    3.695861   12.630222    ( 0.0000,  0.0000,  0.0000)
  29 Cu     4.203472    5.539712   13.923294    ( 0.0000,  0.0000,  0.0000)
  30 Cu     1.585302    5.549330   13.921336    ( 0.0000,  0.0000,  0.0000)
  31 Cu     2.891979    3.696489   12.570906    ( 0.0000,  0.0000,  0.0000)
  32 Cu     2.893008    3.701406   15.220839    ( 0.0000,  0.0000,  0.0000)
  33 Cu     1.586757    5.551594   16.543688    ( 0.0000,  0.0000,  0.0000)
  34 Cu     4.203073    5.549574   16.542388    ( 0.0000,  0.0000,  0.0000)
  35 Cu     0.277652    3.699826   15.228727    ( 0.0000,  0.0000,  0.0000)
  36 Cu     0.278347    3.700871   17.844615    ( 0.0000,  0.0000,  0.0000)
  37 Cu     4.202226    5.552299   19.162667    ( 0.0000,  0.0000,  0.0000)
  38 Cu     1.587282    5.550511   19.162081    ( 0.0000,  0.0000,  0.0000)
  39 Cu     2.896094    3.699332   17.846167    ( 0.0000,  0.0000,  0.0000)
  40 Cu     2.895034    3.689744   20.468648    ( 0.0000,  0.0000,  0.0000)
  41 Cu     1.581145    5.547784   21.761122    ( 0.0000,  0.0000,  0.0000)
  42 Cu     4.208363    5.548067   21.763035    ( 0.0000,  0.0000,  0.0000)
  43 Cu     0.277513    3.699240   20.468279    ( 0.0000,  0.0000,  0.0000)
  44 Cu     0.282403    3.692379   23.126419    ( 0.0000,  0.0000,  0.0000)
  45 Cu     4.204347    5.557399   24.312269    ( 0.0000,  0.0000,  0.0000)
  46 Cu     1.585207    5.556171   24.307688    ( 0.0000,  0.0000,  0.0000)
  47 Cu     2.895682    3.707975   23.099015    ( 0.0000,  0.0000,  0.0000)
  48 Cu     6.815902    1.857266   11.266864    ( 0.0000,  0.0000,  0.0000)
  49 Cu     5.512292   -0.007627   10.084231    ( 0.0000,  0.0000,  0.0000)
  50 Cu     5.516568    0.003856   12.630858    ( 0.0000,  0.0000,  0.0000)
  51 Cu     6.820227    1.852728   13.924166    ( 0.0000,  0.0000,  0.0000)
  52 Cu     6.819210    1.851175   16.547654    ( 0.0000,  0.0000,  0.0000)
  53 Cu     5.510471    0.001413   15.229784    ( 0.0000,  0.0000,  0.0000)
  54 Cu     5.510806    0.000434   17.848219    ( 0.0000,  0.0000,  0.0000)
  55 Cu     6.820027    1.852260   19.163515    ( 0.0000,  0.0000,  0.0000)
  56 Cu     6.820094    1.855667   21.761999    ( 0.0000,  0.0000,  0.0000)
  57 Cu     5.512423    0.002682   20.470960    ( 0.0000,  0.0000,  0.0000)
  58 Cu     5.506106    0.008663   23.111884    ( 0.0000,  0.0000,  0.0000)
  59 Cu     6.819522    1.843288   24.299220    ( 0.0000,  0.0000,  0.0000)
[...]
  65 Cu     5.513131    3.699586   15.221299    ( 0.0000,  0.0000,  0.0000)
  66 Cu     5.509488    3.700623   17.846432    ( 0.0000,  0.0000,  0.0000)
  67 Cu     6.819828    5.550615   19.155631    ( 0.0000,  0.0000,  0.0000)
  68 Cu     6.819845    5.546713   21.765705    ( 0.0000,  0.0000,  0.0000)
  69 Cu     5.511227    3.699174   20.471342    ( 0.0000,  0.0000,  0.0000)
  70 Cu     5.505644    3.692016   23.130762    ( 0.0000,  0.0000,  0.0000)
  71 Cu     6.819911    5.559715   24.306944    ( 0.0000,  0.0000,  0.0000)
  72 Cl     2.887818    1.790073   26.301630    ( 0.0000,  0.0000,  0.0000)
  73 Cl     4.208862    3.653676    8.090793    ( 0.0000,  0.0000,  0.0000)
  74 Cl     5.387818    5.590073   26.301630    ( 0.0000,  0.0000,  0.0000)
  75 Cl     1.608862   -0.146324    8.090793    ( 0.0000,  0.0000,  0.0000)
[...]

[...]

Density initialized from wave functions
 |    |    Cl      Cl    |
 |    |        Cu        |
 |    |CCuCl         Cl  |
 |  CuCu  Cu Cu  CuCu    |
 |    |  Cu    Cu  CuCu  |
 |    CuCu  CuCu   Cu    |
 |  Cu|CuCuCu  CuCu  Cu  |
 |Cu  CuCu  Cu     Cu    |
 |  Cu|CuCuCu  CuCu  Cu  |
 |    | Cu    Cu         |
 |  CuCu CCuCu CuCuCuCu  |
 |    | Cu    Cu         |
 |  CuCu CCuCu CuCuCuCu  |
 |    |      Cu     Cu   |
 |CuCuCuCuCuCuCu CuCu    |
 |Cu  |      Cl      Cl  |

[...]

Density initialized from wave functions
 |    |    Cl      Cl    |
 |    |        Cu        |
 |    | CuCl       CuCl  |
 |  CuCu  Cu Cu  CuCu    |
 |    |  Cu    Cu  CuCu  |
 |Cu  CuCu  Cu     Cu    |
 |  Cu|CuCuCu  CuCu  Cu  |
 |Cu  CuCu  Cu     Cu    |
 |  Cu|CuCuCu  CuCu  Cu  |
 |    | Cu    Cu         |
 |  CuCu CCuCu CuCuCuCu  |
 |    | Cu    Cu         |
 |  CuCu CCuCu CuCuCuCu  |
 |    |      Cu    Cu    |
 |CuCuCuCuCuCuCu ClCu    |
 |    |          Cu      |
 |Cu  |      Cl      Cl  |

[...]

     iter     time        total  log10-change:
                         energy  eigst   dens
iter:   1 18:22:43 -5749.624436  -2.43
iter:   2 18:24:22 -5749.592818  -3.02  -2.48
iter:   3 18:25:54 -5749.391991c -3.43  -2.50
iter:   4 18:27:25 -5749.153319  -4.32  -2.61
iter:   5 18:28:50 -5749.124006c -3.79  -2.93
iter:   6 18:30:12 -5749.116926c -4.44  -3.14
iter:   7 18:31:32 -5749.110929c -4.66  -3.31
iter:   8 18:32:55 -5749.110805c -4.97  -3.51
iter:   9 18:34:21 -5749.110860c -5.51  -3.71
iter:  10 18:35:45 -5749.109860c -5.76  -3.66
iter:  11 18:37:13 -5749.109193c -5.34  -3.73
iter:  12 18:38:40 -5749.108919c -6.41  -3.98
iter:  13 18:40:03 -5749.108971c -6.17  -4.14c
iter:  14 18:41:25 -5749.108746c -6.54  -4.24c
iter:  15 18:42:47 -5749.108882c -6.33  -4.29c
iter:  16 18:44:08 -5749.108776c -6.72  -4.13c
iter:  17 18:45:28 -5749.108670c -6.76  -4.32c
iter:  18 18:47:14 -5749.108678c -6.94  -4.55c
iter:  19 18:48:58 -5749.108663c -7.83c -4.73c

[...]

Density initialized from wave functions
 |    |    Cl      Cl    |
 |    |        Cu        |
 |    | CuCl       CuCl  |
 |  CuCu  Cu Cu  CuCu    |
 |    |  Cu    Cu  CuCu  |
 |Cu  CuCu  Cu     Cu    |
 |  Cu|CuCuCu  CuCu  Cu  |
 |Cu  CuCu  Cu     Cu    |
 |  Cu|CuCuCu  CuCu  Cu  |
 |    | Cu    Cu         |
 |  CuCu CCuCu CuCuCuCu  |
 |    | Cu    Cu         |
 |  CuCu CCuCu CuCuCuCu  |
 |    |      Cu    Cu    |
 |CuCuCuCuCuCuCu ClCu    |
 |    |          Cu      |
 |Cu  |      Cl      Cl  |

[...]

Density initialized from wave functions
 |    |    Cl      Cl    |
 |    |        Cu        |
 |    | CuCl       CuCl  |
 |  CuCu  CuCu   CuCu    |
 |    |  Cu    Cu  CuCu  |
 |Cu  CuCu  Cu     Cu    |
 |  Cu|CuCuCu  CuCu  Cu  |
 |Cu  CuCu  Cu     Cu    |
 |  Cu|CuCuCu  CuCu  Cu  |
 |    | Cu    Cu         |
 |  CuCu CCuCu CuCuCuCu  |
 |    |            Cu    |
 |    | Cu    Cu         |
 |  CuCu CCuCu CuCuCuCu  |
 |    |      Cu    Cu    |
 |CuCuCuCuCuCu   ClCu    |
 |    |          Cu      |
 |Cu  |      Cl      Cl  |

[...]

Density initialized from wave functions
 |    |    Cl      Cl    |
 |    |        Cu        |
 |    | CuCl       CuCl  |
 |  CuCu  CuCu   CuCu    |
 |    |  Cu    Cu  CuCu  |
 |Cu  CuCu  Cu     Cu    |
 |  Cu|CuCuCu  CuCu  Cu  |
 |Cu  CuCu  Cu     Cu    |
 |  Cu|CuCuCu  CuCu  Cu  |
 |    | Cu    Cu         |
 |  CuCu CCuCu CuCuCuCu  |
 |    |            Cu    |
 |    | Cu    Cu         |
 |  CuCu CCuCu CuCuCuCu  |
 |    |      Cu    Cu    |
 |CuCuCuCuCuCu   ClCu    |
 |    |          Cu      |
 |Cu  |      Cl      Cl  |

[...]

Density initialized from wave functions
 |    |    Cl      Cl    |
 |    |        Cu        |
 |    | CuCl       CuCl  |
 |  CuCu  CuCu   CuCu    |
 |    |  Cu    Cu  CuCu  |
 |Cu  CuCu CCu     Cu    |
 |  Cu|  Cu    CuCuCuCu  |
 |Cu  CuCu  Cu     Cu    |
 |  Cu|CuCuCu  CuCu  Cu  |
 |Cu  | Cu               |
 |  CuCu CCuCu CuCuCuCu  |
 |    |            Cu    |
 |    | Cu    Cu         |
 |  CuCu CCuCu CuCuCuCu  |
 |    |      Cu    Cu    |
 |CuCuCuCuCuCu   ClCu    |
 |    |          Cu      |
 |Cu  |      Cl      Cl  |

[...]

Density initialized from wave functions
 |    |    Cl      Cl    |
 |    |        Cu        |
 |    | CuCl       CuCl  |
 |  CuCu  CuCu   CuCu    |
 |    |  Cu    Cu  CuCu  |
 |Cu  CuCu CCu     Cu    |
 |  Cu|  Cu    CuCuCuCu  |
 |Cu  CuCu  Cu     Cu    |
 |  Cu|CuCuCu  CuCu  Cu  |
 |Cu  | Cu               |
 |  CuCu CCuCu CuCuCuCu  |
 |    |      Cu    Cu    |
 |    | Cu    Cu         |
 |  CuCu CCuCu CuCuCuCu  |
 |    |      Cu    Cu    |
 |CuCuCu CCuCu   ClCu    |
 |    |          Cu      |
 |Cu  |      Cl      Cl  |

[...]

Density initialized from wave functions
 |    |    Cl      Cl    |
 |    |        Cu        |
 |    | CuCl Cu    CuCl  |
 |  CuCu  CuCu   CuCu    |
 |    |  Cu    Cu  CuCu  |
 |Cu  Cu   CCu     Cu    |
 |  Cu|  Cu    CuCuCuCu  |
 |Cu  CuCu  Cu     Cu    |
 |  Cu|  CuCuCuCuCu  Cu  |
 |Cu  | Cu               |
 |  CuCu CuCCu CuCuCuCu  |
 |    |      Cu    Cu    |
 |Cu  |       Cu         |
 |  CuCu CuCCu CuCuCuCu  |
 |    |      Cu          |
 |CuCuCu CCuCu   ClCu    |
 |    |          Cu      |
 |Cu  |      CCu     Cl  |

[...]

Density initialized from wave functions
 |    |    Cl      Cl    |
 |    |        Cu        |
 |    | CuCl Cu    CuCl  |
 |  CuCu  CuCu   CuCu    |
 |    |  Cu    Cu  CuCu  |
 |Cu  Cu  CuCu     Cu    |
 |  Cu|  Cu    CuCuCuCu  |
 |Cu  CuCu  Cu     Cu    |
 |  Cu|  CuCu  CuCu  Cu  |
 |Cu  | Cu               |
 |  CuCu CuCCu CuCuCuCu  |
 |    |      Cu    Cu    |
 |Cu  | Cu    Cu         |
 |  CuCu CuCCu CuCuCuCu  |
 |    |      Cu          |
 |CuCuCu CCuCu   ClCu    |
 |    |          Cu      |
 |Cu  |      ClCu    Cl  |

[...]

System changes: positions

Initializing position-dependent things.

Density initialized from wave functions
 |    |    Cl      Cl    |
 |    |        Cu        |
 |    | CuCl Cu    CuCl  |
 |  CuCu  CuCu   CuCu    |
 |    |  Cu    Cu  CuCu  |
 |Cu  Cu  CuCu     Cu    |
 |  Cu|  Cu    CuCuCuCu  |
 |Cu  CuCu  Cu     Cu    |
 |  Cu|  CuCu  CuCu  Cu  |
 |Cu  | Cu               |
 |  CuCu CuCCu CuCuCuCu  |
 |    |      Cu    Cu    |
 |Cu  | Cu    Cu         |
 |  CuCu CuCCu CuCuCuCu  |
 |    |      Cu          |
 |CuCuCu CCuCu   ClCu    |
 |    |          Cu      |
 |Cu  |      ClCu    Cl  |

Positions:
   0 Cu     2.942354   -0.008618    9.703943    ( 0.0000,  0.0000,  0.0000)
   1 Cu     1.620490    1.834840   11.333552    ( 0.0000,  0.0000,  0.0000)
   2 Cu     4.222285    1.843674   11.284842    ( 0.0000,  0.0000,  0.0000)
   3 Cu     0.282962    0.006892   10.083123    ( 0.0000,  0.0000,  0.0000)
   4 Cu     0.278483    0.000524   12.610649    ( 0.0000,  0.0000,  0.0000)
   5 Cu     4.209775    1.850277   13.907295    ( 0.0000,  0.0000,  0.0000)
   6 Cu     1.594787    1.832995   13.942674    ( 0.0000,  0.0000,  0.0000)
   7 Cu     2.919897   -0.001017   12.527138    ( 0.0000,  0.0000,  0.0000)
   8 Cu     2.903381    0.000209   15.210542    ( 0.0000,  0.0000,  0.0000)
   9 Cu     1.590371    1.848065   16.555982    ( 0.0000,  0.0000,  0.0000)
  10 Cu     4.202393    1.850404   16.539123    ( 0.0000,  0.0000,  0.0000)
  11 Cu     0.271955    0.000618   15.224704    ( 0.0000,  0.0000,  0.0000)
  12 Cu     0.278567    0.003858   17.840609    ( 0.0000,  0.0000,  0.0000)
  13 Cu     4.205052    1.850714   19.177752    ( 0.0000,  0.0000,  0.0000)
  14 Cu     1.592783    1.850970   19.184288    ( 0.0000,  0.0000,  0.0000)
  15 Cu     2.896603    0.000267   17.847876    ( 0.0000,  0.0000,  0.0000)
  16 Cu     2.891605    0.000685   20.478943    ( 0.0000,  0.0000,  0.0000)
  17 Cu     1.590092    1.850170   21.870341    ( 0.0000,  0.0000,  0.0000)
  18 Cu     4.202849    1.851019   21.789107    ( 0.0000,  0.0000,  0.0000)
  19 Cu     0.275420    0.019554   20.450973    ( 0.0000,  0.0000,  0.0000)
  20 Cu     0.277173    0.012539   23.061010    ( 0.0000,  0.0000,  0.0000)
  21 Cu     4.228765    1.856196   24.310569    ( 0.0000,  0.0000,  0.0000)
  22 Cu     1.594201    1.837710   24.682415    ( 0.0000,  0.0000,  0.0000)
  23 Cu     2.883330   -0.004264   23.105108    ( 0.0000,  0.0000,  0.0000)
  24 Cu     2.879295    3.701069   10.083247    ( 0.0000,  0.0000,  0.0000)
  25 Cu     1.618676    5.565161   11.329529    ( 0.0000,  0.0000,  0.0000)
  26 Cu     4.223544    5.555300   11.286185    ( 0.0000,  0.0000,  0.0000)
  27 Cu     0.323336    3.695261   10.087933    ( 0.0000,  0.0000,  0.0000)
  28 Cu     0.304091    3.700740   12.613327    ( 0.0000,  0.0000,  0.0000)
  29 Cu     4.210114    5.552741   13.910857    ( 0.0000,  0.0000,  0.0000)
  30 Cu     1.593656    5.570708   13.938869    ( 0.0000,  0.0000,  0.0000)
  31 Cu     2.900753    3.702423   12.600554    ( 0.0000,  0.0000,  0.0000)
  32 Cu     2.894398    3.701690   15.210461    ( 0.0000,  0.0000,  0.0000)
  33 Cu     1.589282    5.554452   16.554945    ( 0.0000,  0.0000,  0.0000)
  34 Cu     4.201562    5.551937   16.539921    ( 0.0000,  0.0000,  0.0000)
  35 Cu     0.288905    3.701407   15.225125    ( 0.0000,  0.0000,  0.0000)
  36 Cu     0.280344    3.697858   17.840272    ( 0.0000,  0.0000,  0.0000)
  37 Cu     4.195534    5.552122   19.177651    ( 0.0000,  0.0000,  0.0000)
  38 Cu     1.582755    5.551808   19.182486    ( 0.0000,  0.0000,  0.0000)
  39 Cu     2.896372    3.701010   17.848660    ( 0.0000,  0.0000,  0.0000)
  40 Cu     2.890898    3.702248   20.481847    ( 0.0000,  0.0000,  0.0000)
  41 Cu     1.569040    5.553550   21.791420    ( 0.0000,  0.0000,  0.0000)
  42 Cu     4.184138    5.552517   21.863762    ( 0.0000,  0.0000,  0.0000)
  43 Cu     0.276697    3.682753   20.450753    ( 0.0000,  0.0000,  0.0000)
  44 Cu     0.278780    3.686802   23.059495    ( 0.0000,  0.0000,  0.0000)
  45 Cu     4.163490    5.541951   24.684212    ( 0.0000,  0.0000,  0.0000)
  46 Cu     1.526715    5.554827   24.316449    ( 0.0000,  0.0000,  0.0000)
  47 Cu     2.882454    3.705168   23.105679    ( 0.0000,  0.0000,  0.0000)
  48 Cu     6.826807    1.863582   11.332477    ( 0.0000,  0.0000,  0.0000)
  49 Cu     5.579553    0.001685   10.075334    ( 0.0000,  0.0000,  0.0000)
  50 Cu     5.535700   -0.001013   12.599302    ( 0.0000,  0.0000,  0.0000)
  51 Cu     6.824625    1.870024   13.940266    ( 0.0000,  0.0000,  0.0000)
  52 Cu     6.818066    1.854076   16.549102    ( 0.0000,  0.0000,  0.0000)
  53 Cu     5.516918    0.000525   15.206631    ( 0.0000,  0.0000,  0.0000)
  54 Cu     5.509374   -0.002787   17.833877    ( 0.0000,  0.0000,  0.0000)
  55 Cu     6.810349    1.851244   19.164661    ( 0.0000,  0.0000,  0.0000)
  56 Cu     6.799682    1.850264   21.778437    ( 0.0000,  0.0000,  0.0000)
  57 Cu     5.506879   -0.017913   20.451300    ( 0.0000,  0.0000,  0.0000)
  58 Cu     5.486536   -0.014901   23.061353    ( 0.0000,  0.0000,  0.0000)
  59 Cu     6.786386    1.854802   24.307185    ( 0.0000,  0.0000,  0.0000)
[...]
  65 Cu     5.506591    3.701333   15.204412    ( 0.0000,  0.0000,  0.0000)
  66 Cu     5.508067    3.704295   17.831677    ( 0.0000,  0.0000,  0.0000)
  67 Cu     6.827471    5.552060   19.163996    ( 0.0000,  0.0000,  0.0000)
  68 Cu     6.825017    5.550457   21.779019    ( 0.0000,  0.0000,  0.0000)
  69 Cu     5.506473    3.719862   20.445710    ( 0.0000,  0.0000,  0.0000)
  70 Cu     5.486028    3.714188   23.055884    ( 0.0000,  0.0000,  0.0000)
  71 Cu     6.821762    5.546803   24.309604    ( 0.0000,  0.0000,  0.0000)
  72 Cl     3.357917    1.770258   26.308779    ( 0.0000,  0.0000,  0.0000)
  73 Cl     3.748884    3.653361    8.080082    ( 0.0000,  0.0000,  0.0000)
  74 Cl     5.889007    5.575910   26.294505    ( 0.0000,  0.0000,  0.0000)
  75 Cl     1.214522   -0.073220    8.095671    ( 0.0000,  0.0000,  0.0000)
  76 Cl     4.707389   -0.039809    8.076075    ( 0.0000,  0.0000,  0.0000)
  77 Cl     2.401151    5.468152   26.313970    ( 0.0000,  0.0000,  0.0000)
  78 Cl     7.241739    3.684377    8.100331    ( 0.0000,  0.0000,  0.0000)
  79 Cl    -0.132360    1.843397   26.293247    ( 0.0000,  0.0000,  0.0000)

Unit cell:
           periodic     x           y           z      points  spacing
  1. axis:    yes    7.851007    0.000000    0.000000    45     0.1745
  2. axis:    yes    0.000000    7.402000    0.000000    42     0.1762
  3. axis:    yes    0.000000    0.000000   34.393512   196     0.1755

  Lengths:   7.851007   7.402000  34.393512
  Angles:   90.000000  90.000000  90.000000

Effective grid spacing dv^(1/3) = 0.1754

     iter     time        total  log10-change:
                         energy  eigst   dens
iter:   1 21:18:10 -5749.287387  -3.90
iter:   2 21:19:45 -5749.340817  -3.72  -2.92
iter:   3 21:21:09 -5749.255570c -4.16  -2.85
iter:   4 21:22:42 -5749.218941c -5.13  -3.08
iter:   5 21:24:03 -5749.218212c -5.76  -3.81
iter:   6 21:25:37 -5749.218379c -6.01  -3.99
iter:   7 21:27:19 -5749.218317c -6.81  -4.19c
iter:   8 21:28:42 -5749.218374c -6.65  -4.26c
iter:   9 21:30:20 -5749.218300c -7.38  -4.41c
iter:  10 21:32:06 -5749.218235c -7.38  -4.51c
iter:  11 21:33:51 -5749.218256c -8.14c -4.66c

Converged after 11 iterations.

Dipole moment: (-54.051475, 9.475638, 0.002223) |e|*Ang

Energy contributions relative to reference atoms: (reference = -3341984.127726)

Kinetic:       +556.339316
Potential:     -616.127821
External:        +0.000000
XC:            -5688.255517
Entropy (-ST):   -0.710137
Local:           -0.819167
Free energy:   -5749.573325
Extrapolated:  -5749.218256

Showing only first 2 kpts
 Kpt  Band  Eigenvalues  Occupancy
  0   422      0.33670    0.90229
  0   423      0.35511    0.81216
  0   424      0.45069    0.41636
  0   425      0.48389    0.31739

  1   422     -0.07725    1.96197
  1   423      0.04617    1.87514
  1   424      0.06941    1.84500
  1   425      0.09679    1.80104

Fermi level: 0.31709

No gap

Forces in eV/Ang:
  0 Cu   -0.00212    0.00172    0.00541
  1 Cu    0.00014   -0.00751   -0.00794
  2 Cu   -0.00256    0.00549   -0.00400
  3 Cu    0.00659   -0.00273   -0.01849
  4 Cu   -0.00610   -0.00020   -0.00397
  5 Cu    0.00001    0.00020   -0.00188
  6 Cu    0.00317    0.00132   -0.00833
  7 Cu    0.00187    0.00101    0.00369
  8 Cu    0.00085    0.00057    0.00434
  9 Cu   -0.00049    0.00383    0.00015
 10 Cu   -0.00030    0.00122    0.00324
 11 Cu    0.00809   -0.00167    0.00070
 12 Cu    0.00203   -0.00363   -0.00139
 13 Cu   -0.00304    0.00088   -0.00398
 14 Cu   -0.00466    0.00109   -0.00293
 15 Cu   -0.00111    0.00040    0.00035
 16 Cu    0.00014   -0.00079    0.00413
 17 Cu    0.00145    0.00094   -0.00847
 18 Cu   -0.00168    0.00137    0.00832
 19 Cu    0.00075   -0.00228    0.00517
 20 Cu    0.00153    0.00266    0.00535
 21 Cu    0.01636   -0.00094   -0.01679
 22 Cu    0.00269    0.00200   -0.00519
 23 Cu    0.00139    0.00471    0.00390
 24 Cu    0.00021    0.00131   -0.02488
 25 Cu   -0.00128    0.00690   -0.00322
 26 Cu   -0.00258   -0.00618   -0.00654
 27 Cu   -0.01208    0.00380   -0.02035
 28 Cu    0.00584   -0.00036   -0.00456
 29 Cu   -0.00005   -0.00066   -0.00550
 30 Cu    0.00520   -0.00228   -0.00300
 31 Cu    0.00218   -0.00255   -0.00196
 32 Cu    0.00427   -0.00053    0.00502
 33 Cu    0.00341   -0.00332    0.00071
 34 Cu    0.00288   -0.00069    0.00179
 35 Cu   -0.00109    0.00145    0.00119
 36 Cu   -0.00353    0.00410    0.00086
 37 Cu    0.00134   -0.00102   -0.00279
 38 Cu    0.00171   -0.00128   -0.00117
 39 Cu    0.00077    0.00011   -0.00171
 40 Cu    0.00002    0.00015    0.00121
 41 Cu    0.00330   -0.00152    0.00627
 42 Cu   -0.00180   -0.00184   -0.00685
 43 Cu   -0.00092    0.00195    0.00857
 44 Cu    0.00215   -0.00304    0.00799
 45 Cu   -0.00370   -0.00001   -0.00657
 46 Cu   -0.00569    0.00187   -0.01008
 47 Cu    0.00095   -0.00521    0.00162
 48 Cu   -0.00395    0.00165   -0.00721
 49 Cu    0.00639   -0.00124    0.01480
 50 Cu   -0.00553    0.00147   -0.00758
 51 Cu    0.00135   -0.00235   -0.00891
 52 Cu    0.00492   -0.00329    0.00018
 53 Cu   -0.00148    0.00118    0.00165
 54 Cu   -0.00248    0.00434   -0.00028
 55 Cu    0.00253   -0.00139   -0.00200
 56 Cu   -0.00606    0.00051    0.00756
 57 Cu   -0.00351    0.00129    0.00387
 58 Cu    0.00153   -0.00255    0.00343
 59 Cu   -0.00150   -0.00178   -0.00722
[...]
 65 Cu    0.00568   -0.00116    0.00285
 66 Cu    0.00117   -0.00370    0.00115
 67 Cu   -0.00680    0.00142   -0.00028
 68 Cu    0.00564   -0.00045    0.00830
 69 Cu   -0.00196   -0.00138    0.00843
 70 Cu    0.00079    0.00187    0.00740
 71 Cu    0.01208    0.00156   -0.01677
 72 Cl   -0.00059   -0.00489    0.00695
 73 Cl   -0.00779    0.00308    0.02452
 74 Cl    0.00311   -0.00069    0.01770
 75 Cl   -0.00415    0.00884    0.01476
 76 Cl   -0.00260   -0.00220    0.00245
 77 Cl   -0.00276   -0.00233   -0.00336
 78 Cl    0.00496   -0.00421   -0.00310
 79 Cl   -0.00092    0.00673    0.01467