User:   thorkong@node029.cluster
Date:   Mon Oct 17 13:27:11 2022
Arch:   x86_64
Pid:    20354
Python: 3.10.5
gpaw:   /groups/kemi/thorkong/miniconda3/envs/gpaw22/lib/python3.10/site-packages/gpaw
_gpaw:  /groups/kemi/thorkong/miniconda3/envs/gpaw22/lib/python3.10/site-packages/
        _gpaw.cpython-310-x86_64-linux-gnu.so
ase:    /groups/kemi/thorkong/miniconda3/envs/gpaw22/lib/python3.10/site-packages/ase (version 3.22.1)
numpy:  /groups/kemi/thorkong/miniconda3/envs/gpaw22/lib/python3.10/site-packages/numpy (version 1.23.0)
scipy:  /groups/kemi/thorkong/miniconda3/envs/gpaw22/lib/python3.10/site-packages/scipy (version 1.8.1)
units:  Angstrom and eV
cores: 32
OpenMP: True
OMP_NUM_THREADS: 1

Input parameters:
  basis: dzp
  kpts: [4 4 1]
  mode: {ecut: 600.0,
         name: pw}
  xc: BEEF-vdW

System changes: positions, numbers, cell, pbc, initial_charges, initial_magmoms

Initialize ...

Cu-setup:
  name: Copper
  id: f1c4d45d90492f1bbfdcb091e8418fdf
  Z: 29.0
  valence: 11
  core: 18
  charge: 0.0
  file: /groups/kemi/thorkong/miniconda3/envs/gpaw22/share/gpaw/Cu.PBE.gz
  compensation charges: gauss, rc=0.33, lmax=2
  cutoffs: 2.06(filt), 2.43(core),
  valence states:
                energy  radius
    4s(1.00)    -4.609   1.164
    4p(0.00)    -0.698   1.164
    3d(10.00)    -5.039   1.058
    *s          22.603   1.164
    *p          26.513   1.164
    *d          22.172   1.058

  LCAO basis set for Cu:
    Name: dzp
    File: /groups/kemi/thorkong/miniconda3/envs/gpaw22/share/gpaw/Cu.dzp.basis.gz
    Number of radial functions: 5
    Number of spherical harmonics: 15
      l=0, rc=8.9688 Bohr: 4s-sz confined orbital
      l=2, rc=5.1719 Bohr: 3d-sz confined orbital
      l=0, rc=5.3281 Bohr: 4s-dz split-valence wave
      l=2, rc=3.1406 Bohr: 3d-dz split-valence wave
      l=1, rc=8.9688 Bohr: p-type Gaussian polarization

Cl-setup:
  name: Chlorine
  id: 726897f06f34e53cf8e33b5885a02604
  Z: 17.0
  valence: 7
  core: 10
  charge: 0.0
  file: /groups/kemi/thorkong/miniconda3/envs/gpaw22/share/gpaw/Cl.PBE.gz
  compensation charges: gauss, rc=0.25, lmax=2
  cutoffs: 1.40(filt), 1.49(core),
  valence states:
                energy  radius
    3s(2.00)   -20.689   0.794
    3p(5.00)    -8.594   0.794
    *s           6.523   0.794
    *p          18.617   0.794
    *d           0.000   0.794

  LCAO basis set for Cl:
    Name: dzp
    File: /groups/kemi/thorkong/miniconda3/envs/gpaw22/share/gpaw/Cl.dzp.basis.gz
    Number of radial functions: 5
    Number of spherical harmonics: 13
      l=0, rc=5.1719 Bohr: 3s-sz confined orbital
      l=1, rc=6.2656 Bohr: 3p-sz confined orbital
      l=0, rc=2.8281 Bohr: 3s-dz split-valence wave
      l=1, rc=3.5156 Bohr: 3p-dz split-valence wave
      l=2, rc=6.2656 Bohr: d-type Gaussian polarization

Reference energy: -2606927.690960

Spin-paired calculation

Convergence criteria:
 Maximum [total energy] change in last 3 cyles: 0.0005 eV / electron
 Maximum integral of absolute [dens]ity change: 0.0001 electrons / valence electron
 Maximum integral of absolute [eigenst]ate change: 4e-08 eV^2 / valence electron
 Maximum number of scf [iter]ations: 333
 (Square brackets indicate name in SCF output, whereas a 'c' in
 the SCF output indicates the quantity has converged.)

Symmetries present (total): 1

  ( 1  0  0)
  ( 0  1  0)
  ( 0  0  1)

16 k-points: 4 x 4 x 1 Monkhorst-Pack grid
8 k-points in the irreducible part of the Brillouin zone
       k-points in crystal coordinates                weights
   0:     0.12500000   -0.37500000    0.00000000          2/16
   1:     0.12500000   -0.12500000    0.00000000          2/16
   2:     0.12500000    0.12500000    0.00000000          2/16
   3:     0.12500000    0.37500000    0.00000000          2/16
   4:     0.37500000   -0.37500000    0.00000000          2/16
   5:     0.37500000   -0.12500000    0.00000000          2/16
   6:     0.37500000    0.12500000    0.00000000          2/16
   7:     0.37500000    0.37500000    0.00000000          2/16

Wave functions: Plane wave expansion
  Cutoff energy: 600.000 eV
  Number of coefficients (min, max): 54614, 54705
  Pulay-stress correction: 0.000000 eV/Ang^3 (de/decut=0.000000)
  Using FFTW library
  ScaLapack parameters: grid=2x2, blocksize=64
  Wavefunction extrapolation:
    Improved wavefunction reuse through dual PAW basis

Occupation numbers: Fermi-Dirac: width=0.1000 eV

Eigensolver
   Davidson(niter=2)

Densities:
  Coarse grid: 45*45*175 grid
  Fine grid: 90*90*350 grid
  Total Charge: 0.000000

Density mixing:
  Method: separate
  Backend: pulay
  Linear mixing parameter: 0.05
  Mixing with 5 old densities
  Damping of long wave oscillations: 50

Hamiltonian:
  XC and Coulomb potentials evaluated on a 90*90*350 grid
  Using the BEEF-vdW Exchange-Correlation functional
  External potential:
    NoExternalPotential

XC parameters: BEEF-vdW with 2 nearest neighbor stencil

Total number of cores used: 32
Parallelization over k-points: 8
Domain decomposition: 1 x 1 x 4
                      2 x 2 x 8 (xc only)

Number of atoms: 68
Number of atomic orbitals: 992
Number of bands in calculation: 420
Number of valence electrons: 692
Bands to converge: occupied

... initialized

Initializing position-dependent things.

Density initialized from atomic densities
Creating initial wave functions:
  420 bands from LCAO basis set

                     Cl     Cl     Cl

                 Cl    Cl
            Cl          CCl   Cu     Cu
                   Cu     Cu    Cu
               Cu    Cu     Cu
                    Cu     Cu    Cu
                Cu    Cu    Cu
           Cu    Cu     Cu
                Cu     Cu    Cu
            Cu    Cu     Cu
       Cu     Cu        Cu    Cu     Cu
                   CCu    Cu    Cu
               Cu    Cu     Cu
                    Cu     Cu    Cu
                Cu    Cu    Cu
           Cu    Cu     Cu
                Cu     Cu    Cu
            Cu    Cu     Cu
       Cu     Cu   CCu          Cl
                     Cl     Cl
               Cl
         Cl            Cl

Positions:
   0 Cu     2.884162   -0.011729   10.033678    ( 0.0000,  0.0000,  0.0000)
   1 Cu     4.175487    2.207390    9.968025    ( 0.0000,  0.0000,  0.0000)
   2 Cu     0.268779    0.005327   10.035957    ( 0.0000,  0.0000,  0.0000)
   3 Cu     1.563079    2.250160   10.040939    ( 0.0000,  0.0000,  0.0000)
   4 Cu     2.905835    3.013667   12.132731    ( 0.0000,  0.0000,  0.0000)
   5 Cu     1.587256    0.751197   12.155983    ( 0.0000,  0.0000,  0.0000)
   6 Cu     5.501600    3.021336   12.124235    ( 0.0000,  0.0000,  0.0000)
   7 Cu     4.203724    0.772150   12.120007    ( 0.0000,  0.0000,  0.0000)
   8 Cu     5.509809    1.511263   14.273560    ( 0.0000,  0.0000,  0.0000)
   9 Cu     6.817749    3.779201   14.272965    ( 0.0000,  0.0000,  0.0000)
  10 Cu     2.895657    1.507106   14.282845    ( 0.0000,  0.0000,  0.0000)
  11 Cu     4.204745    3.779097   14.275593    ( 0.0000,  0.0000,  0.0000)
  12 Cu     2.898323   -0.006205   16.439255    ( 0.0000,  0.0000,  0.0000)
  13 Cu     4.202828    2.263486   16.411249    ( 0.0000,  0.0000,  0.0000)
  14 Cu     0.271173   -0.001683   16.415015    ( 0.0000,  0.0000,  0.0000)
  15 Cu     1.580207    2.267720   16.418056    ( 0.0000,  0.0000,  0.0000)
  16 Cu     2.898773    3.019517   18.534881    ( 0.0000,  0.0000,  0.0000)
  17 Cu     1.574509    0.759578   18.535562    ( 0.0000,  0.0000,  0.0000)
  18 Cu     5.517461    3.017381   18.557838    ( 0.0000,  0.0000,  0.0000)
  19 Cu     4.218777    0.769327   18.565915    ( 0.0000,  0.0000,  0.0000)
  20 Cu     5.482458    1.472743   20.721328    ( 0.0000,  0.0000,  0.0000)
  21 Cu     6.840691    3.826186   20.718062    ( 0.0000,  0.0000,  0.0000)
  22 Cu     2.872766    1.512688   20.651496    ( 0.0000,  0.0000,  0.0000)
  23 Cu     4.179191    3.794081   20.647081    ( 0.0000,  0.0000,  0.0000)
  24 Cu     5.533098    4.559222    9.954112    ( 0.0000,  0.0000,  0.0000)
  25 Cu     2.867968    4.534051   10.029210    ( 0.0000,  0.0000,  0.0000)
  26 Cu     4.213127    5.276205   12.126541    ( 0.0000,  0.0000,  0.0000)
  27 Cu     6.799507    5.268601   12.115394    ( 0.0000,  0.0000,  0.0000)
  28 Cu     8.121886    6.047639   14.244202    ( 0.0000,  0.0000,  0.0000)
  29 Cu     5.516666    6.046671   14.278211    ( 0.0000,  0.0000,  0.0000)
  30 Cu     5.511110    4.531825   16.410270    ( 0.0000,  0.0000,  0.0000)
  31 Cu     2.888634    4.532926   16.406558    ( 0.0000,  0.0000,  0.0000)
  32 Cu     4.204789    5.283723   18.534523    ( 0.0000,  0.0000,  0.0000)
  33 Cu     6.814487    5.265823   18.565627    ( 0.0000,  0.0000,  0.0000)
  34 Cu     8.131354    6.045561   20.650058    ( 0.0000,  0.0000,  0.0000)
  35 Cu     5.501317    6.065983   20.648502    ( 0.0000,  0.0000,  0.0000)
  36 Cu     5.515639   -0.030915   10.037620    ( 0.0000,  0.0000,  0.0000)
  37 Cu     6.838300    2.241957   10.038361    ( 0.0000,  0.0000,  0.0000)
  38 Cu     8.121401    3.021170   12.150082    ( 0.0000,  0.0000,  0.0000)
  39 Cu     6.815400    0.755845   12.149679    ( 0.0000,  0.0000,  0.0000)
  40 Cu     8.132578    1.510559   14.278234    ( 0.0000,  0.0000,  0.0000)
  41 Cu     9.440817    3.775125   14.268637    ( 0.0000,  0.0000,  0.0000)
  42 Cu     5.504098   -0.004613   16.403245    ( 0.0000,  0.0000,  0.0000)
  43 Cu     6.816730    2.264183   16.407976    ( 0.0000,  0.0000,  0.0000)
  44 Cu     8.113114    3.026556   18.553628    ( 0.0000,  0.0000,  0.0000)
  45 Cu     6.806143    0.763216   18.553497    ( 0.0000,  0.0000,  0.0000)
  46 Cu     8.148557    1.500971   20.654047    ( 0.0000,  0.0000,  0.0000)
  47 Cu     9.453486    3.785452   20.645604    ( 0.0000,  0.0000,  0.0000)
  48 Cu     8.143342    4.522704   10.030314    ( 0.0000,  0.0000,  0.0000)
  49 Cu     9.444142    5.279553   12.148158    ( 0.0000,  0.0000,  0.0000)
  50 Cu    10.750397    6.043904   14.266863    ( 0.0000,  0.0000,  0.0000)
  51 Cu     8.125450    4.536072   16.403731    ( 0.0000,  0.0000,  0.0000)
  52 Cu     9.432612    5.289470   18.528114    ( 0.0000,  0.0000,  0.0000)
  53 Cu    10.748665    6.030225   20.646267    ( 0.0000,  0.0000,  0.0000)
  54 Cl     6.147134    2.664301   22.667231    ( 0.0000,  0.0000,  0.0000)
  55 Cl     4.853098    3.366848    8.014863    ( 0.0000,  0.0000,  0.0000)
  56 Cl    10.101076    4.907838   23.055936    ( 0.0000,  0.0000,  0.0000)
  57 Cl     0.915929    1.127744    7.628448    ( 0.0000,  0.0000,  0.0000)
  58 Cl     8.857645    5.743262    7.623330    ( 0.0000,  0.0000,  0.0000)
  59 Cl     2.077612    0.292715   23.096412    ( 0.0000,  0.0000,  0.0000)
  60 Cl     4.840254    4.930032   23.057792    ( 0.0000,  0.0000,  0.0000)
  61 Cl     6.176970    1.105521    7.627990    ( 0.0000,  0.0000,  0.0000)
  62 Cl     3.525825    5.890548    7.624209    ( 0.0000,  0.0000,  0.0000)
  63 Cl     7.377612    0.192715   23.096412    ( 0.0000,  0.0000,  0.0000)
  64 Cl     3.535671    2.617828   22.668468    ( 0.0000,  0.0000,  0.0000)
  65 Cl     7.796854    2.949642    7.999351    ( 0.0000,  0.0000,  0.0000)
  66 Cl     3.285427    1.026889    7.992637    ( 0.0000,  0.0000,  0.0000)
[...]
                  Cl
                    Cu    Cu
               Cu    Clu   CCu    Cu

[...]

            Cl                  Cu
                         Cl
                  Cl     Cu Cl Cu     Cu

                    Cu    Cu
               Cu   ClCu   CCu    Cu

[...]

             Cu    Cu    CCu   Cu     Cu
        Cu    Cu     Cu   Cu
                    Cu           Cu
               Cu    CCu   CCu    Cu

[...]

             Cu    Cu     Cu
        Cu    Cu     Cul        Cl
                 Cu
               Cl        Cl
                              Cl
                Cl

[...]

                    Cu    Cu
               Cu   ClCu   CCu    Cu

[...]

             Cu    Cu    CCu   Cu     Cu
        Cu    Cu     Cu
                    Cu    Cu     Cu
               Cu    CCu   CCu    Cu

[...]

             Cu    Cu     Cu
        Cu    Cu     Cul        Cl

               ClCu      Cl
                              Cl
                Cl

[...]

                    Cl    Cu
               Cu    CCu   CCu    Cu

[...]

             Cu    Cu    CCu   Cu     Cu
        Cu    Cu     Cu   Cu
                    Cu           Cu
               Cu    CCu   CCu    Cu

[...]

            Cl                  Cu
                         Cl
                  Cl     Cu Cl Cu     Cu

                    CCl   Cu
               Cu    CCu   CCu    Cu

[...]

               Cl Cu     Cl
                              Cl
                Cl

[...]

                  Cl     Cu Cl Cu     Cu
                    Cu     Cu
                     Cl
               Cu    CCu   CCu    Cu

[...]

                  Cl     Cu Cl Cu     Cu

[...]

                  Cl     Cu Cl Cu     Cu

                    CCl    Cu
               Cu    CCu   CCu    Cu

[...]

                  Cl     Cu Cl Cu     Cu
                           Cu
                    CCl
               Cu    CCu    Cu    Cu

[...]

                  Cl     Cu Cl Cu     Cu
                    Cu     Cu
                     Cl
               Cu    CCu    Cu    Cu

[...]

                Cu     Cu    Cu
            Cu    Cu    CCu   Cu

[...]

            Cl           Cl     Cu

                  Cl     Cu Cl Cu     Cu
                    Cu     Cu
                     Cl
               Cu    CCu    Cu    Cu

[...]

               Cu    CCu   CCu    Cu
                             Cu
                Cu     Cu
            Cu    Cu    CCu   Cu

[...]

                  Cl     Cu Cl Cu     Cu
                    Cu     Cu
                     Cl
               Cu    CCu    Cu    Cu
                             Cu
                Cu     Cu
            Cu   CCu    CCu   Cu

[...]

               Cu    CCu   CCu    Cu
                       Cu    Cu
                Cu
            Cu    Cu    CCu   Cu

[...]

                  Cl     Cu Cl Cu     Cu
                    Cu     Cu
                     Cl
               Cu    CCu    Cu    Cu
                             Cu
                Cu     Cu
            Cu   CCu    CCu   Cu

[...]

                  Cl     Cu Cl Cu     Cu
                    Cu     Cu
                     Cl
               Cu    CCu    Cu    Cu
                       Cu    Cu
                Cu
            Cu   CCu    CCu   Cu

[...]

                  Cl     Cu Cl Cu     Cu
                    Cu     Cu
                     Cl
               Cu    CCu    Cu    Cu
                       Cu    Cu
                Cu
            Cu   CCu    CCu   Cu

[...]

                  Cl     Cu Cl Cu     Cu
                    Cu     Cu
                     Cl
               Cu    CCu    Cu    Cu
                Cu     Cu    Cu

[...]

               Cu    CCu    Cu    Cu
                       Cu    Cu
                Cu
            Cu    Cu    CCu   Cu

[...]

               Cu    CCu    Cu    Cu
                             Cu
                Cu     Cu
            Cu    Cu    CCu   Cu

             Cu    Cu     Cu
        Cu    Cu     CuCl       Cl

[...]

             Cu    Cu     Cu
        Cu    Cu     Cul        Cl

[...]

                ClCu     Cl
                              Cl
                Cl

[...]

               Cu    CCu    Cu    Cu
                             Cu
                Cu     Cu
            Cu    Cu    CCu   Cu

[...]

               Cu    CCu    Cu    Cu
                       Cu    Cu
                Cu
            Cu    Cu    CCu   Cu

[...]

                   Cl    Cu Cl Cu     Cu
                    Cu     Cu
                     Cl
               Cu    CCu    Cu    Cu
                Cu     Cu    Cu

[...]

               Cu    CCu   CCu    Cu
                       Cu    Cu
                Cu
            Cu    Cu    CCu   Cu

[...]

                   Cl    Cu Cl Cu     Cu
                    Cu     Cu

               Cu    Clu    Cu    Cu
                Cu     Cu    Cu

            Cu   CCu    CCu   Cu

[...]

               Cu    Clu    Cu    Cu
                       Cu    Cu
                Cu
            Cu   CCu    CCu   Cu

[...]

            Cl                  Cu
                         Cl

[...]

               Cu    Clu    Cu    Cu
                             Cu
                Cu     Cu
            Cu   CCu    CCu   Cu

[...]

     iter     time        total  log10-change:
                         energy  eigst   dens
iter:   1 19:17:47 -4598.680320  -3.39
iter:   2 19:18:35 -4599.933904  -2.75  -2.49
iter:   3 19:19:24 -4598.955396  -3.06  -2.26
iter:   4 19:20:26 -4598.602715  -3.89  -2.59
iter:   5 19:21:22 -4598.476972  -4.17  -2.99
iter:   6 19:22:12 -4598.465456c -4.95  -3.22
iter:   7 19:23:01 -4598.421906c -4.12  -3.29
iter:   8 19:23:49 -4598.433223c -4.75  -2.94
iter:   9 19:24:43 -4598.423284c -6.17  -3.53
iter:  10 19:25:32 -4598.418035c -5.67  -3.62
iter:  11 19:26:23 -4598.416884c -5.95  -3.62
iter:  12 19:27:13 -4598.422464c -5.96  -3.80
iter:  13 19:28:04 -4598.420968c -7.20  -3.96
iter:  14 19:28:51 -4598.418779c -6.53  -4.07c
iter:  15 19:29:39 -4598.418853c -6.82  -3.97
iter:  16 19:30:30 -4598.417229c -6.97  -4.33c
iter:  17 19:31:20 -4598.418163c -7.51c -4.29c

[...]

               Cu    Clu    CCu   Cu

                Cu     Cu    Cu
            Cu   CCu    CCu   Cu

[...]

System changes: positions

Initializing position-dependent things.

Density initialized from wave functions

[...]

            Cl
                         Cl     Cu

                   Cl    Cu Cl Cu     Cu
                    Cu     Cu

               Cu    Clu    CCu   Cu
                             Cu
                Cu     Cu
            Cu   CCu    CCu   Cu

             Cu    Cu    CCu   Cu     Cu
        Cu     Cu   CCu    Cu    Cu

               Cu    CCu   CCu    Cu
                             Cu
                Cu     Cu
            Cu    Cu    CCu   Cu

             Cu    Cu     Cu
        Cu    Cu     CuCl       Cl

                Cl Cu    Cl
                              Cl
                Cl

            Cl

Positions:
   0 Cu     2.837747    0.009649   10.078965    ( 0.0000,  0.0000,  0.0000)
   1 Cu     4.204885    2.331053    9.958873    ( 0.0000,  0.0000,  0.0000)
   2 Cu     0.273981    0.041277   10.069535    ( 0.0000,  0.0000,  0.0000)
   3 Cu     1.587737    2.375394    9.936871    ( 0.0000,  0.0000,  0.0000)
   4 Cu     2.875375    3.103092   12.091988    ( 0.0000,  0.0000,  0.0000)
   5 Cu     1.545558    0.850735   12.124163    ( 0.0000,  0.0000,  0.0000)
   6 Cu     5.475144    3.077030   12.112458    ( 0.0000,  0.0000,  0.0000)
   7 Cu     4.189721    0.824603   12.120660    ( 0.0000,  0.0000,  0.0000)
   8 Cu     5.479638    1.590092   14.284186    ( 0.0000,  0.0000,  0.0000)
   9 Cu     6.782992    3.850642   14.277937    ( 0.0000,  0.0000,  0.0000)
  10 Cu     2.859170    1.584387   14.266332    ( 0.0000,  0.0000,  0.0000)
  11 Cu     4.174124    3.848961   14.265994    ( 0.0000,  0.0000,  0.0000)
  12 Cu     2.841246    0.076094   16.419624    ( 0.0000,  0.0000,  0.0000)
  13 Cu     4.159839    2.342680   16.425799    ( 0.0000,  0.0000,  0.0000)
  14 Cu     0.232324    0.076552   16.431490    ( 0.0000,  0.0000,  0.0000)
  15 Cu     1.538928    2.346355   16.438298    ( 0.0000,  0.0000,  0.0000)
  16 Cu     2.847062    3.132398   18.583223    ( 0.0000,  0.0000,  0.0000)
  17 Cu     1.531308    0.853887   18.563810    ( 0.0000,  0.0000,  0.0000)
  18 Cu     5.461509    3.111192   18.604872    ( 0.0000,  0.0000,  0.0000)
  19 Cu     4.156315    0.822021   18.558278    ( 0.0000,  0.0000,  0.0000)
  20 Cu     5.480618    1.577541   20.705773    ( 0.0000,  0.0000,  0.0000)
  21 Cu     6.796420    3.847056   20.719143    ( 0.0000,  0.0000,  0.0000)
  22 Cu     2.812075    1.584406   20.618857    ( 0.0000,  0.0000,  0.0000)
  23 Cu     4.122691    3.884812   20.770445    ( 0.0000,  0.0000,  0.0000)
  24 Cu     5.419756    4.584362   10.054660    ( 0.0000,  0.0000,  0.0000)
  25 Cu     3.618873    4.499273    6.320282    ( 0.0000,  0.0000,  0.0000)
  26 Cu     4.154857    5.355857   12.136110    ( 0.0000,  0.0000,  0.0000)
  27 Cu     6.773489    5.356232   12.148800    ( 0.0000,  0.0000,  0.0000)
  28 Cu     8.082908    6.125538   14.288602    ( 0.0000,  0.0000,  0.0000)
  29 Cu     5.476267    6.124584   14.276486    ( 0.0000,  0.0000,  0.0000)
  30 Cu     5.465653    4.607307   16.420391    ( 0.0000,  0.0000,  0.0000)
  31 Cu     2.850196    4.604727   16.396861    ( 0.0000,  0.0000,  0.0000)
  32 Cu     4.156928    5.347207   18.547978    ( 0.0000,  0.0000,  0.0000)
  33 Cu     6.797277    5.362297   18.546829    ( 0.0000,  0.0000,  0.0000)
  34 Cu     8.117652    6.063093   20.661575    ( 0.0000,  0.0000,  0.0000)
  35 Cu     5.468905    6.171245   20.601187    ( 0.0000,  0.0000,  0.0000)
  36 Cu     5.488463   -0.008392   10.011400    ( 0.0000,  0.0000,  0.0000)
  37 Cu     6.808099    2.322370   10.026726    ( 0.0000,  0.0000,  0.0000)
  38 Cu     8.108746    3.071923   12.151394    ( 0.0000,  0.0000,  0.0000)
  39 Cu     6.786269    0.818565   12.157509    ( 0.0000,  0.0000,  0.0000)
  40 Cu     8.092054    1.587817   14.301232    ( 0.0000,  0.0000,  0.0000)
  41 Cu     9.406969    3.848072   14.268047    ( 0.0000,  0.0000,  0.0000)
  42 Cu     5.473526    0.084565   16.414279    ( 0.0000,  0.0000,  0.0000)
  43 Cu     6.773523    2.348569   16.443053    ( 0.0000,  0.0000,  0.0000)
  44 Cu     8.094863    3.132272   18.614809    ( 0.0000,  0.0000,  0.0000)
  45 Cu     6.773813    0.861544   18.580664    ( 0.0000,  0.0000,  0.0000)
  46 Cu     8.098763    1.635321   20.687123    ( 0.0000,  0.0000,  0.0000)
  47 Cu     9.161772    3.091613   24.307780    ( 0.0000,  0.0000,  0.0000)
  48 Cu     8.064090    4.612761   10.125765    ( 0.0000,  0.0000,  0.0000)
  49 Cu     9.415806    5.365300   12.159002    ( 0.0000,  0.0000,  0.0000)
  50 Cu    10.716796    6.121159   14.283728    ( 0.0000,  0.0000,  0.0000)
  51 Cu     8.084166    4.600484   16.411205    ( 0.0000,  0.0000,  0.0000)
  52 Cu     9.396549    5.360435   18.521430    ( 0.0000,  0.0000,  0.0000)
  53 Cu    10.736663    6.126078   20.594002    ( 0.0000,  0.0000,  0.0000)
  54 Cl     7.894912    1.873954   22.962922    ( 0.0000,  0.0000,  0.0000)
  55 Cl     5.220707    4.165931    7.812580    ( 0.0000,  0.0000,  0.0000)
  56 Cl    10.176269    4.323860   25.714977    ( 0.0000,  0.0000,  0.0000)
  57 Cl     1.718598   -0.075379    4.978845    ( 0.0000,  0.0000,  0.0000)
  58 Cl     7.503043    5.832242    4.994165    ( 0.0000,  0.0000,  0.0000)
  59 Cl     1.965942    0.157583   25.892604    ( 0.0000,  0.0000,  0.0000)
  60 Cl     5.887229    5.063374   22.548392    ( 0.0000,  0.0000,  0.0000)
  61 Cl     6.900391    0.691135    8.203900    ( 0.0000,  0.0000,  0.0000)
  62 Cl     2.214874    4.537177    4.724823    ( 0.0000,  0.0000,  0.0000)
  63 Cl     5.627369   -1.330918   22.393842    ( 0.0000,  0.0000,  0.0000)
  64 Cl     3.971937    2.147762   22.513751    ( 0.0000,  0.0000,  0.0000)
  65 Cl     9.091152    3.988985    8.241516    ( 0.0000,  0.0000,  0.0000)
  66 Cl     3.240407    1.138793    8.148687    ( 0.0000,  0.0000,  0.0000)
  67 Cl     7.677717    5.944222   25.809017    ( 0.0000,  0.0000,  0.0000)

Unit cell:
           periodic     x           y           z      points  spacing
  1. axis:    yes    7.851007    0.000000    0.000000    45     0.1511
  2. axis:    yes    3.925503    6.799171    0.000000    45     0.1511
  3. axis:    yes    0.000000    0.000000   30.683867   175     0.1753

  Lengths:   7.851007   7.851006  30.683867
  Angles:   90.000000  90.000000  60.000001

Effective grid spacing dv^(1/3) = 0.1666

     iter     time        total  log10-change:
                         energy  eigst   dens
iter:   1 19:46:52 -4598.431042  -3.58
iter:   2 19:47:43 -4598.420535  -4.65  -3.15
iter:   3 19:48:35 -4598.426378c -5.39  -3.30
iter:   4 19:49:21 -4598.434029c -5.38  -3.40
iter:   5 19:50:15 -4598.421565c -5.92  -3.56
iter:   6 19:51:05 -4598.430898c -5.42  -3.61
iter:   7 19:51:52 -4598.429191c -5.89  -3.69
iter:   8 19:52:41 -4598.428784c -6.91  -3.77
iter:   9 19:53:28 -4598.425637c -5.94  -3.91
iter:  10 19:54:20 -4598.423086c -6.56  -4.12c
iter:  11 19:55:11 -4598.426714c -6.36  -4.18c
iter:  12 19:56:00 -4598.424000c -7.02  -4.30c
iter:  13 19:56:56 -4598.425929c -7.00  -4.48c
iter:  14 19:57:42 -4598.425274c -7.61c -4.64c

Converged after 14 iterations.

Dipole moment: (22.818656, -4.537216, 0.035906) |e|*Ang

Energy contributions relative to reference atoms: (reference = -2606927.690960)

Kinetic:       +503.166848
Potential:     -537.166560
External:        +0.000000
XC:            -4563.352424
Entropy (-ST):   -0.678409
Local:           -0.733933
Free energy:   -4598.764479
Extrapolated:  -4598.425274

Showing only first 2 kpts
 Kpt  Band  Eigenvalues  Occupancy
  0   344      0.50178    1.46708
  0   345      0.63969    0.81879
  0   346      0.70106    0.54573
  0   347      0.84452    0.16412

  1   344      0.31274    1.89600
  1   345      0.37147    1.82035
  1   346      0.40161    1.76461
  1   347      0.51080    1.43110

Fermi level: 0.60305

No gap

Forces in eV/Ang:
  0 Cu    0.00998    0.00751   -0.00139
  1 Cu   -0.00380    0.00290   -0.00039
  2 Cu   -0.00932    0.00098   -0.00204
  3 Cu    0.00205    0.00092   -0.00896
  4 Cu    0.00305    0.00744    0.00823
  5 Cu    0.00915    0.00042   -0.00696
  6 Cu   -0.00937    0.00351    0.00192
  7 Cu   -0.00699   -0.00335    0.01425
  8 Cu   -0.00272    0.00715    0.00662
  9 Cu    0.00117   -0.00470   -0.00562
 10 Cu    0.00343   -0.00139    0.00799
 11 Cu   -0.00253    0.00875    0.01024
 12 Cu   -0.00281    0.00711   -0.00296
 13 Cu    0.00060    0.00094    0.00742
 14 Cu    0.00068    0.00151   -0.00664
 15 Cu    0.00322    0.00669   -0.01351
 16 Cu   -0.00271   -0.00361    0.00539
 17 Cu    0.00474    0.00871   -0.00446
 18 Cu    0.01000   -0.00121   -0.01311
 19 Cu    0.00775    0.00300    0.00240
 20 Cu   -0.00661    0.00402   -0.01116
 21 Cu    0.00313   -0.01325    0.00645
 22 Cu    0.00301   -0.01486   -0.00501
 23 Cu   -0.00262   -0.00202   -0.00657
 24 Cu   -0.00404    0.01243   -0.00021
 25 Cu    0.01890    0.01457   -0.00159
 26 Cu    0.00262    0.00811    0.00117
 27 Cu   -0.01059    0.00512    0.00230
 28 Cu    0.00647   -0.00986    0.00021
 29 Cu    0.00053   -0.00026    0.00290
 30 Cu    0.00912    0.00568    0.00434
 31 Cu    0.00789    0.00122    0.01703
 32 Cu    0.00012    0.00396    0.00339
 33 Cu   -0.00125   -0.00021    0.00288
 34 Cu    0.00253    0.00103    0.00099
 35 Cu    0.00081   -0.00029    0.00624
 36 Cu    0.00870    0.00724    0.00482
 37 Cu   -0.00827   -0.00305    0.01202
 38 Cu    0.00000   -0.00447   -0.01158
 39 Cu   -0.00334   -0.01029    0.01208
 40 Cu   -0.00044   -0.00430   -0.01200
 41 Cu   -0.00151   -0.00275   -0.00317
 42 Cu   -0.00883    0.00194    0.00415
 43 Cu    0.00623   -0.00059   -0.01445
 44 Cu   -0.00623    0.00397   -0.01129
 45 Cu    0.01337   -0.00913   -0.00345
 46 Cu   -0.00911    0.00239    0.00854
 47 Cu   -0.02285   -0.01291   -0.00003
 48 Cu   -0.00668    0.00807   -0.00779
 49 Cu   -0.00110   -0.00549    0.00060
 50 Cu   -0.00385   -0.00370    0.00887
 51 Cu    0.00737    0.00773   -0.00072
 52 Cu   -0.00140    0.00196    0.00225
 53 Cu   -0.00465   -0.00859    0.00313
 54 Cl    0.00643   -0.00430    0.00855
 55 Cl    0.01315    0.01669   -0.00564
 56 Cl   -0.01173   -0.01200   -0.00231
 57 Cl   -0.01545   -0.01269    0.01019
 58 Cl    0.02189    0.00701    0.00799
 59 Cl   -0.01025   -0.00677   -0.01559
 60 Cl   -0.01220   -0.01543    0.00194
 61 Cl   -0.00161   -0.01320   -0.00959
 62 Cl    0.00648    0.00243   -0.00879
 63 Cl   -0.01309   -0.00843   -0.01919
 64 Cl   -0.00558    0.00654    0.00195
 65 Cl   -0.00344   -0.00718    0.00683
 66 Cl   -0.00260    0.00194   -0.00852
 67 Cl    0.02599   -0.00087   -0.00169