User:   thorkong@node251.cluster
Date:   Mon Oct 17 14:35:18 2022
Arch:   x86_64
Pid:    223035
Python: 3.10.5
gpaw:   /groups/kemi/thorkong/miniconda3/envs/gpaw22/lib/python3.10/site-packages/gpaw
_gpaw:  /groups/kemi/thorkong/miniconda3/envs/gpaw22/lib/python3.10/site-packages/
        _gpaw.cpython-310-x86_64-linux-gnu.so
ase:    /groups/kemi/thorkong/miniconda3/envs/gpaw22/lib/python3.10/site-packages/ase (version 3.22.1)
numpy:  /groups/kemi/thorkong/miniconda3/envs/gpaw22/lib/python3.10/site-packages/numpy (version 1.23.0)
scipy:  /groups/kemi/thorkong/miniconda3/envs/gpaw22/lib/python3.10/site-packages/scipy (version 1.8.1)
units:  Angstrom and eV
cores: 32
OpenMP: True
OMP_NUM_THREADS: 1

Input parameters:
  basis: dzp
  kpts: [4 4 1]
  mode: {ecut: 600.0,
         name: pw}
  xc: BEEF-vdW

System changes: positions, numbers, cell, pbc, initial_charges, initial_magmoms

Initialize ...

Cu-setup:
  name: Copper
  id: f1c4d45d90492f1bbfdcb091e8418fdf
  Z: 29.0
  valence: 11
  core: 18
  charge: 0.0
  file: /groups/kemi/thorkong/miniconda3/envs/gpaw22/share/gpaw/Cu.PBE.gz
  compensation charges: gauss, rc=0.33, lmax=2
  cutoffs: 2.06(filt), 2.43(core),
  valence states:
                energy  radius
    4s(1.00)    -4.609   1.164
    4p(0.00)    -0.698   1.164
    3d(10.00)    -5.039   1.058
    *s          22.603   1.164
    *p          26.513   1.164
    *d          22.172   1.058

  LCAO basis set for Cu:
    Name: dzp
    File: /groups/kemi/thorkong/miniconda3/envs/gpaw22/share/gpaw/Cu.dzp.basis.gz
    Number of radial functions: 5
    Number of spherical harmonics: 15
      l=0, rc=8.9688 Bohr: 4s-sz confined orbital
      l=2, rc=5.1719 Bohr: 3d-sz confined orbital
      l=0, rc=5.3281 Bohr: 4s-dz split-valence wave
      l=2, rc=3.1406 Bohr: 3d-dz split-valence wave
      l=1, rc=8.9688 Bohr: p-type Gaussian polarization

Cl-setup:
  name: Chlorine
  id: 726897f06f34e53cf8e33b5885a02604
  Z: 17.0
  valence: 7
  core: 10
  charge: 0.0
  file: /groups/kemi/thorkong/miniconda3/envs/gpaw22/share/gpaw/Cl.PBE.gz
  compensation charges: gauss, rc=0.25, lmax=2
  cutoffs: 1.40(filt), 1.49(core),
  valence states:
                energy  radius
    3s(2.00)   -20.689   0.794
    3p(5.00)    -8.594   0.794
    *s           6.523   0.794
    *p          18.617   0.794
    *d           0.000   0.794

  LCAO basis set for Cl:
    Name: dzp
    File: /groups/kemi/thorkong/miniconda3/envs/gpaw22/share/gpaw/Cl.dzp.basis.gz
    Number of radial functions: 5
    Number of spherical harmonics: 13
      l=0, rc=5.1719 Bohr: 3s-sz confined orbital
      l=1, rc=6.2656 Bohr: 3p-sz confined orbital
      l=0, rc=2.8281 Bohr: 3s-dz split-valence wave
      l=1, rc=3.5156 Bohr: 3p-dz split-valence wave
      l=2, rc=6.2656 Bohr: d-type Gaussian polarization

Reference energy: -2481378.197003

Spin-paired calculation

Convergence criteria:
 Maximum [total energy] change in last 3 cyles: 0.0005 eV / electron
 Maximum integral of absolute [dens]ity change: 0.0001 electrons / valence electron
 Maximum integral of absolute [eigenst]ate change: 4e-08 eV^2 / valence electron
 Maximum number of scf [iter]ations: 333
 (Square brackets indicate name in SCF output, whereas a 'c' in
 the SCF output indicates the quantity has converged.)

Symmetries present (total): 1

  ( 1  0  0)
  ( 0  1  0)
  ( 0  0  1)

16 k-points: 4 x 4 x 1 Monkhorst-Pack grid
8 k-points in the irreducible part of the Brillouin zone
       k-points in crystal coordinates                weights
   0:     0.12500000   -0.37500000    0.00000000          2/16
   1:     0.12500000   -0.12500000    0.00000000          2/16
   2:     0.12500000    0.12500000    0.00000000          2/16
   3:     0.12500000    0.37500000    0.00000000          2/16
   4:     0.37500000   -0.37500000    0.00000000          2/16
   5:     0.37500000   -0.12500000    0.00000000          2/16
   6:     0.37500000    0.12500000    0.00000000          2/16
   7:     0.37500000    0.37500000    0.00000000          2/16

Wave functions: Plane wave expansion
  Cutoff energy: 600.000 eV
  Number of coefficients (min, max): 63070, 63184
  Pulay-stress correction: 0.000000 eV/Ang^3 (de/decut=0.000000)
  Using FFTW library
  ScaLapack parameters: grid=2x2, blocksize=64
  Wavefunction extrapolation:
    Improved wavefunction reuse through dual PAW basis

Occupation numbers: Fermi-Dirac: width=0.1000 eV

Eigensolver
   Davidson(niter=2)

Densities:
  Coarse grid: 45*48*175 grid
  Fine grid: 90*96*350 grid
  Total Charge: 0.000000

Density mixing:
  Method: separate
  Backend: pulay
  Linear mixing parameter: 0.05
  Mixing with 5 old densities
  Damping of long wave oscillations: 50

Hamiltonian:
  XC and Coulomb potentials evaluated on a 90*96*350 grid
  Using the BEEF-vdW Exchange-Correlation functional
  External potential:
    NoExternalPotential

XC parameters: BEEF-vdW with 2 nearest neighbor stencil

Total number of cores used: 32
Parallelization over k-points: 8
Domain decomposition: 1 x 1 x 4
                      2 x 2 x 8 (xc only)

Number of atoms: 58
Number of atomic orbitals: 862
Number of bands in calculation: 378
Number of valence electrons: 622
Bands to converge: occupied

... initialized

Initializing position-dependent things.

Density initialized from atomic densities
Creating initial wave functions:
  378 bands from LCAO basis set

                Cl
        Cl Cu    Cu     Cu
               Cu    Cu     Cu
         Cu    Cu     Cu
             Cu    Cu     Cu
       Cu     Cu    Cu
           Cu    CCu    Cu
         Cu    Cu    CCu    Cu

       Cu    CCu    Cu    Cu
           Cu    CCu    Cu
               Cu    Cu     Cu
         Cu     Cu    Cu
             Cu     Cu    Cu
       Cu     Cu    Cu
           Cu Cl  Cu    Cu
                   Cl

Positions:
   0 Cu     1.851874    1.842086   10.044767    ( 0.0000,  0.0000,  0.0000)
   1 Cu     0.572048    0.518337   11.854739    ( 0.0000,  0.0000,  0.0000)
   2 Cu     3.208369    0.549454   11.826759    ( 0.0000,  0.0000,  0.0000)
   3 Cu     1.885044    1.836608   13.699605    ( 0.0000,  0.0000,  0.0000)
   4 Cu     0.579320    0.526826   15.560947    ( 0.0000,  0.0000,  0.0000)
   5 Cu     3.185437    0.522508   15.555968    ( 0.0000,  0.0000,  0.0000)
   6 Cu     1.901068    1.854575   17.424612    ( 0.0000,  0.0000,  0.0000)
   7 Cu     0.575906    0.561899   19.206760    ( 0.0000,  0.0000,  0.0000)
   8 Cu     3.188310    0.488633   19.210481    ( 0.0000,  0.0000,  0.0000)
   9 Cu     0.574574    3.144633   11.846476    ( 0.0000,  0.0000,  0.0000)
  10 Cu     0.575916    3.143785   15.552326    ( 0.0000,  0.0000,  0.0000)
  11 Cu     0.546349    3.145891   19.206137    ( 0.0000,  0.0000,  0.0000)
  12 Cu     7.147069    1.821677   10.043621    ( 0.0000,  0.0000,  0.0000)
  13 Cu     5.794000    0.540777   11.820405    ( 0.0000,  0.0000,  0.0000)
  14 Cu     7.114080    1.831917   13.694773    ( 0.0000,  0.0000,  0.0000)
  15 Cu     5.808982    0.523918   15.556714    ( 0.0000,  0.0000,  0.0000)
  16 Cu     7.113100    1.827061   17.396972    ( 0.0000,  0.0000,  0.0000)
  17 Cu     5.807880    0.526790   19.217827    ( 0.0000,  0.0000,  0.0000)
  18 Cu     4.494064    1.763231    9.932089    ( 0.0000,  0.0000,  0.0000)
  19 Cu     4.496146    4.525263    9.931071    ( 0.0000,  0.0000,  0.0000)
  20 Cu     3.207669    3.147945   11.830838    ( 0.0000,  0.0000,  0.0000)
  21 Cu     5.791432    3.139321   11.831411    ( 0.0000,  0.0000,  0.0000)
  22 Cu     4.501104    1.833097   13.705422    ( 0.0000,  0.0000,  0.0000)
  23 Cu     4.500286    4.451342   13.700374    ( 0.0000,  0.0000,  0.0000)
  24 Cu     3.191019    3.143173   15.550169    ( 0.0000,  0.0000,  0.0000)
  25 Cu     5.806714    3.142761   15.552225    ( 0.0000,  0.0000,  0.0000)
  26 Cu     4.483820    1.848780   17.430757    ( 0.0000,  0.0000,  0.0000)
  27 Cu     4.483576    4.446716   17.420218    ( 0.0000,  0.0000,  0.0000)
  28 Cu     3.195113    3.070202   19.320757    ( 0.0000,  0.0000,  0.0000)
  29 Cu     5.840799    3.127025   19.209886    ( 0.0000,  0.0000,  0.0000)
  30 Cu     1.850636    4.467419   10.041562    ( 0.0000,  0.0000,  0.0000)
  31 Cu     1.883456    7.067453   10.032493    ( 0.0000,  0.0000,  0.0000)
  32 Cu     0.578168    5.767618   11.853682    ( 0.0000,  0.0000,  0.0000)
  33 Cu     3.207330    5.746015   11.820678    ( 0.0000,  0.0000,  0.0000)
  34 Cu     1.884398    4.451712   13.698510    ( 0.0000,  0.0000,  0.0000)
  35 Cu     1.882140    7.070634   13.694193    ( 0.0000,  0.0000,  0.0000)
  36 Cu     0.577138    5.762455   15.555937    ( 0.0000,  0.0000,  0.0000)
  37 Cu     3.190200    5.761333   15.545038    ( 0.0000,  0.0000,  0.0000)
  38 Cu     1.899950    4.455283   17.419419    ( 0.0000,  0.0000,  0.0000)
  39 Cu     1.897387    7.053708   17.430112    ( 0.0000,  0.0000,  0.0000)
  40 Cu     0.544416    5.772752   19.207193    ( 0.0000,  0.0000,  0.0000)
  41 Cu     3.197353    5.832220   19.317966    ( 0.0000,  0.0000,  0.0000)
  42 Cu     7.144990    4.448863   10.045121    ( 0.0000,  0.0000,  0.0000)
  43 Cu     7.115261    7.033008   10.044024    ( 0.0000,  0.0000,  0.0000)
  44 Cu     5.790284    5.740371   11.826573    ( 0.0000,  0.0000,  0.0000)
  45 Cu     7.115409    4.450638   13.698320    ( 0.0000,  0.0000,  0.0000)
  46 Cu     7.111993    7.067752   13.689826    ( 0.0000,  0.0000,  0.0000)
  47 Cu     5.806194    5.757852   15.551058    ( 0.0000,  0.0000,  0.0000)
  48 Cu     7.116689    4.449777   17.404260    ( 0.0000,  0.0000,  0.0000)
  49 Cu     7.119110    7.076103   17.395949    ( 0.0000,  0.0000,  0.0000)
  50 Cu     5.839650    5.752596   19.206190    ( 0.0000,  0.0000,  0.0000)
  51 Cu     4.502840    7.106124   10.040718    ( 0.0000,  0.0000,  0.0000)
  52 Cu     4.505854    7.072213   13.694900    ( 0.0000,  0.0000,  0.0000)
  53 Cu     4.482985    7.045347   17.423899    ( 0.0000,  0.0000,  0.0000)
  54 Cl     3.111134    4.453599   21.202893    ( 0.0000,  0.0000,  0.0000)
  55 Cl     4.580310    3.143724    8.048163    ( 0.0000,  0.0000,  0.0000)
  56 Cl     1.867046    5.767436    8.237027    ( 0.0000,  0.0000,  0.0000)
  57 Cl     0.561128    1.853895   21.006449    ( 0.0000,  0.0000,  0.0000)

Unit cell:
           periodic     x           y           z      points  spacing
  1. axis:    yes    7.851007    0.000000    0.000000    45     0.1655
  2. axis:    yes    2.617002    7.851007    0.000000    48     0.1636
  3. axis:    yes    0.000000    0.000000   30.683867   175     0.1753

  Lengths:   7.851007   8.275688  30.683867
  Angles:   90.000000  90.000000  71.565053

Effective grid spacing dv^(1/3) = 0.1710

     iter     time        total  log10-change:
                         energy  eigst   dens
iter:   1 14:40:10 -4295.708424
iter:   2 14:40:58 -4259.082611  -0.79  -1.09
iter:   3 14:41:47 -4246.190497  -1.43  -1.27
iter:   4 14:42:36 -4240.319568  -1.42  -1.36
iter:   5 14:43:25 -4239.850031  -1.68  -1.51
iter:   6 14:44:14 -4236.722433  -2.00  -1.60
iter:   7 14:45:02 -4235.745355  -2.08  -1.75
iter:   8 14:45:52 -4235.347237  -2.29  -1.77
iter:   9 14:46:40 -4234.815768  -2.64  -2.19
iter:  10 14:47:30 -4234.686040  -2.66  -2.42
[...]
 43 Cu   -0.20598    0.06148    0.06366
 44 Cu    0.00476   -0.00918   -0.05047
 45 Cu   -0.00800   -0.00282    0.04986
 46 Cu   -0.01021   -0.00499   -0.00451
 47 Cu   -0.00523   -0.00015    0.00334
 48 Cu    0.07372   -0.05516    0.02058
 49 Cu    0.00690    0.00215    0.01823
 50 Cu   -0.00207    0.00551   -0.00434
 51 Cu    0.19058    0.08394    0.04618
 52 Cu    0.01013    0.00459    0.03765
 53 Cu   -0.06734    0.05059    0.02961
 54 Cl    0.10476    0.10529   -0.08607
 55 Cl    0.08002   -0.06818    0.05623
 56 Cl   -0.07105    0.04401   -1.23110
 57 Cl   -0.09853   -0.10102    1.28679

System changes: positions

[...]

Density initialized from wave functions

[...]

                Cl
        Cl Cu    Cu     Cu
               Cu    Cu     Cu
         Cu    Cu     Cu
             Cu    Cu     Cu
       Cu     Cu    Cu
           Cu    CCu    Cu
         Cu    Cu    CCu    Cu

[...]

                Cl
        Cl Cu    Cu     Cu
               Cu    Cu     Cu
         Cu     Cu    Cu
             Cu     Cu    Cu
       Cu     Cu    Cu
           Cu    CCu    Cu
         Cu    CCu   CCu    Cu

       Cu    CCu    Cu    Cu
           Cu    CCu    Cu
               Cu    Cu     Cu
         Cu     Cu    Cu
             Cu     Cu    Cu
       Cu     Cu    Cu
           Cu Cl  Cu    Cu
                   Cl

[...]

                Cl
        Cl Cu    Cu     Cu
               Cu    Cu     Cu
         Cu     Cu    Cu
       Cu    Cu     Cu    Cu
              Cu    Cu
           Cu    CCu    Cu
         Cu    CCu   CCu    Cu

       Cu    CCu    Cu    Cu
           Cu    CCu    Cu
                     Cu     Cu
         Cu    CCu    Cu
             Cu     Cu    Cu
       Cu     Cu    Cu
           Cu Cl  Cu    Cu

                   Cl

[...]

                Cl
        Cl Cu    Cu     Cu
               Cu    Cu     Cu
         Cu     Cu    Cu
       Cu    Cu     Cu    Cu
              Cu    Cu
           CCu   CCu    Cu
         Cu    CCu   CCu    Cu

       Cu    CCu    Cu    Cu
           Cu    CCu    Cu
                     Cu     Cu
         Cu    CCu    Cu
             Cu     Cu    Cu
       Cu     Cu    Cu
           Cu Cl  Cu    Cu

[...]

                Cl
        Cl Cu    Cu     Cu
               Cu    Cu
         Cu     Cu    Cu    Cu
       Cu    Cu     Cu    Cu
              Cu    Cu
           CCu   CCu    Cu
         Cu    CCu   CCu    Cu

       Cu    CCu    Cu    Cu
           CCu   CCu    Cu
                     Cu     Cu
         Cu    CCu    Cu
             Cu     Cu    Cu
       Cu     Cu    Cu
           Cu Cl  Cu    Cu

[...]

        Cu   CCu    Cu    Cu
           CCu   CCu    Cu
                     Cu     Cu
         Cu    CCu    Cu
             Cu     Cu    Cu
       Cu     Cu    Cu
           Cu Cl  Cu    Cu

[...]

        Cu   CCu    Cu    Cu
           CCu   CCu    Cu
                     Cu     Cu
         Cu    CCu    Cu
             Cu     Cu    Cu
       Cu     Cu    Cu
           Cu Cl  Cu    Cu
                   Cl

[...]

        Cu   CCu    Cu    Cu
           CCu   CCu    Cu
                     Cu     Cu
         Cu    CCu    Cu
             Cu     Cu    Cu
        Cu    Cu    Cu
            CuCl  Cu    Cu
                   Cl

[...]

        Cu   CCu    Cu    Cu
           CCu   CCu    Cu
                      Cu    Cu
         Cu    CCu    Cu
             Cu     Cu    Cu
        Cu    Cu    Cu
            CuCl  Cu    Cu
                   Cl

[...]

                 Cl
        Cl Cu     Cu     Cu
                Cu    Cu     Cu
          Cu    Cu     Cu
        Cu    Cu    Cu     Cu
               Cu    Cu
           CCu    CCu   CCu
          Cu    Cu    CCu    Cu

        Cu    Cu    CCu    Cu
           CCu    CCu   CCu
                      Cu    Cu
          Cu    Cu     Cu
              Cu    Cu     Cu
        Cu     Cu    Cu
            CuCl   Cu    Cu
                    Cl

[...]

                  Cl
        Cl Cu     Cu     Cu
                Cu    Cu     Cu
          Cu    Cu     Cu
        Cu    Cu    Cu     Cu
               Cu    Cu
           CCu    CCu    Cu
          Cu    Cu    CCu    Cu

        Cu    CCu   CCu    Cu
            Cu    CCu   CCu
                      Cu     Cu
          Cu    Cu     Cu
              Cu    Cu     Cu
        Cu     Cu    Cu
            CuCl   Cu    Cu
                    Cl

[...]

                  Cl
        Cl  Cu    Cu     Cu
                Cu    Cu     Cu
          Cu    Cu     Cu
        Cu    Cu    Cu     Cu
               Cu    Cu
            Cu    CCu    Cu
          Cu    Cu    CCu    Cu

        Cu    CCu   CCu    Cu
            Cu    CCu   CCu
                      Cu     Cu
          Cu    Cu     Cu
              Cu     Cu    Cu
        Cu     Cu    Cu
            CuCl   Cu    Cu
                    Cl

[...]

        Cu    CCu    Cu    Cu
            Cu    CCu    Cu
                      Cu     Cu
          Cu    CCu    Cu
              Cu     Cu    Cu
        Cu     Cu    Cu
            CuCl   Cu    Cu
                     Cl

[...]

                  Cl
        Cl  Cu    Cu     Cu
                Cu    Cu     Cu
          Cu     Cu    Cu
         Cu   Cu     Cu    Cu
               Cu    Cu
            CCu   CCu    Cu
          Cu    CCu   CCu    Cu

         Cu   CCu    Cu    Cu
            CCu   CCu    Cu
                       Cu
          Cu    CCu    Cu    Cu
              Cu     Cu    Cu
        Cu     Cu    Cu
            CuCl   Cu    Cu
                     Cl

[...]

                   Cl
        Cl  Cu     Cu     Cu
                 Cu    Cu     Cu
           Cu    Cu     Cu
         Cu    Cu    CCu    Cu
                Cu
             Cu    CCu    Cu
           Cu    Cu    CCu    Cu

         Cu    CCu   CCu    Cu
             Cu    CCu    Cu

           Cu    Cu    CCu    Cu
               Cu    Cu     Cu
         Cu     Cu    Cu
             Cul   Cu     Cu
                      Cl

[...]

                    Cl
        Cl   Cu    Cu     Cu
                 Cu    Cu     Cu
           Cu     Cu    Cu
          Cu   Cu     Cu    Cu
                Cu
             CCu   CCu    Cu
           Cu    CCu   CCu    Cu

         Cu    CCu    Cu    Cu
             Cu    Cu     Cu
                    Cu
           Cu    Cu    CCu    Cu
               Cu     Cu    Cu
         Cu     Cu    Cu
             Cul    Cu    Cu
                       Cl

[...]

                     Cl
        Cl    Cu    Cu     Cu
                  Cu    Cu     Cu
            Cu    Cu     Cu
          Cu    Cu    CCu    Cu
                 Cu
              Cu    CCu    Cu
            Cu    Cu    CCu    Cu

[...]

            Cu    Cu    CCu    Cu
                Cu    Cu     Cu
          Cu     Cu    Cu
              Cul   Cu     Cu
                        Cl

[...]

                      Cl
        Cl    Cu    Cu     Cu
                  Cu    Cu     Cu
            Cu    Cu     Cu
          Cu    CCu    Cu    Cu

              Cu    CCu    Cu
            Cu    Cu    CCu    Cu

          Cu    CCu    Cu    Cu
              Cu    CCu    Cu

            Cu    Cu    CCu    Cu
                Cu    Cu     Cu
          Cu     Cu    Cu
              Cu     Cu    Cu
                         Cl

[...]

        Cl   Cu    Cu     Cu
            Cu   CCu   CCu    Cu

          Cu    CCu   CCu   Cu
             CCu   CuCu   CCu

            Cu   CCu   CCu    Cu
          Cu   CCu    CCu   Cu

             CCu   CCu    CCu
           Cu     Cu    Cu    Cu
                 Cu
          Cu   CuCu   CCu   Cu
              Cu    Cu     Cu

                        Cl

[...]

          Cu    CCu   CCu    Cu
              Cu    CCu    Cu

[...]

System changes: positions

Initializing position-dependent things.

Density initialized from wave functions

                      Cl
        Cl    Cu    Cu     Cu
                  Cu    Cu     Cu
            Cu    Cu     Cu
          Cu    CCu    Cu    Cu

              Cu    CCu    Cu
            Cu    Cu    CCu    Cu

          Cu    CCu    Cu    Cu
              Cu    CCu    Cu

            Cu    Cu    CCu    Cu
                Cu     Cu    Cu
          Cu     Cu    Cu
              Cu     Cu    Cu
                         Cl

Positions:
   0 Cu     1.876421    1.819969   10.051518    ( 0.0000,  0.0000,  0.0000)
   1 Cu     0.540179    0.520269   11.810727    ( 0.0000,  0.0000,  0.0000)
   2 Cu     3.227098    0.535170   11.820593    ( 0.0000,  0.0000,  0.0000)
   3 Cu     1.882809    1.824906   13.674034    ( 0.0000,  0.0000,  0.0000)
   4 Cu     0.578114    0.534491   15.556011    ( 0.0000,  0.0000,  0.0000)
   5 Cu     3.188545    0.537059   15.548561    ( 0.0000,  0.0000,  0.0000)
   6 Cu     1.872374    1.857408   17.415974    ( 0.0000,  0.0000,  0.0000)
   7 Cu     0.623960    0.523285   19.259238    ( 0.0000,  0.0000,  0.0000)
   8 Cu     3.199473    0.530237   19.175419    ( 0.0000,  0.0000,  0.0000)
   9 Cu     0.561817    3.154532   11.838175    ( 0.0000,  0.0000,  0.0000)
  10 Cu     0.580677    3.149619   15.534601    ( 0.0000,  0.0000,  0.0000)
  11 Cu     0.577322    3.190728   19.241233    ( 0.0000,  0.0000,  0.0000)
  12 Cu     7.155626    1.822709    9.990441    ( 0.0000,  0.0000,  0.0000)
  13 Cu     5.814682    0.531317   11.819515    ( 0.0000,  0.0000,  0.0000)
  14 Cu     7.121476    1.827489   13.699579    ( 0.0000,  0.0000,  0.0000)
  15 Cu     5.802697    0.511957   15.542397    ( 0.0000,  0.0000,  0.0000)
  16 Cu     7.099708    1.842757   17.379531    ( 0.0000,  0.0000,  0.0000)
  17 Cu     5.769275    0.492693   19.263123    ( 0.0000,  0.0000,  0.0000)
  18 Cu     4.447549    1.816068    9.978965    ( 0.0000,  0.0000,  0.0000)
  19 Cu     4.487972    4.499573    9.993392    ( 0.0000,  0.0000,  0.0000)
  20 Cu     3.196437    3.164277   11.816273    ( 0.0000,  0.0000,  0.0000)
  21 Cu     5.820686    3.156004   11.858238    ( 0.0000,  0.0000,  0.0000)
  22 Cu     4.500354    1.846974   13.687082    ( 0.0000,  0.0000,  0.0000)
  23 Cu     4.501122    4.467382   13.699580    ( 0.0000,  0.0000,  0.0000)
  24 Cu     3.184470    3.139006   15.538898    ( 0.0000,  0.0000,  0.0000)
  25 Cu     5.805526    3.144976   15.532568    ( 0.0000,  0.0000,  0.0000)
  26 Cu     4.518325    1.853327   17.404235    ( 0.0000,  0.0000,  0.0000)
  27 Cu     4.501707    4.445751   17.381039    ( 0.0000,  0.0000,  0.0000)
  28 Cu     3.157708    3.098767   19.254391    ( 0.0000,  0.0000,  0.0000)
  29 Cu     5.801472    3.155551   19.264189    ( 0.0000,  0.0000,  0.0000)
  30 Cu     1.905176    4.401839    9.987131    ( 0.0000,  0.0000,  0.0000)
  31 Cu     1.938184    7.085167    9.978097    ( 0.0000,  0.0000,  0.0000)
  32 Cu     0.577873    5.752971   11.864980    ( 0.0000,  0.0000,  0.0000)
  33 Cu     3.198328    5.754371   11.815877    ( 0.0000,  0.0000,  0.0000)
  34 Cu     1.894140    4.449032   13.697443    ( 0.0000,  0.0000,  0.0000)
  35 Cu     1.892329    7.065067   13.691538    ( 0.0000,  0.0000,  0.0000)
  36 Cu     0.575169    5.762590   15.549968    ( 0.0000,  0.0000,  0.0000)
  37 Cu     3.187763    5.762751   15.552171    ( 0.0000,  0.0000,  0.0000)
  38 Cu     1.880712    4.445689   17.415897    ( 0.0000,  0.0000,  0.0000)
  39 Cu     1.896933    7.078814   17.428475    ( 0.0000,  0.0000,  0.0000)
  40 Cu     0.545625    5.758094   19.181111    ( 0.0000,  0.0000,  0.0000)
  41 Cu     3.136046    5.786172   19.259154    ( 0.0000,  0.0000,  0.0000)
  42 Cu     7.119207    4.464025    9.984922    ( 0.0000,  0.0000,  0.0000)
  43 Cu     7.097848    7.083403   10.004770    ( 0.0000,  0.0000,  0.0000)
  44 Cu     5.824302    5.753607   11.835876    ( 0.0000,  0.0000,  0.0000)
  45 Cu     7.119861    4.457227   13.714249    ( 0.0000,  0.0000,  0.0000)
  46 Cu     7.116869    7.079158   13.692355    ( 0.0000,  0.0000,  0.0000)
  47 Cu     5.808709    5.786856   15.550992    ( 0.0000,  0.0000,  0.0000)
  48 Cu     7.090488    4.440114   17.401884    ( 0.0000,  0.0000,  0.0000)
  49 Cu     7.121042    7.080572   17.414995    ( 0.0000,  0.0000,  0.0000)
  50 Cu     5.828743    5.799503   19.235538    ( 0.0000,  0.0000,  0.0000)
  51 Cu     4.524121    7.089607   10.042452    ( 0.0000,  0.0000,  0.0000)
  52 Cu     4.496655    7.084224   13.680632    ( 0.0000,  0.0000,  0.0000)
  53 Cu     4.477447    7.070043   17.421150    ( 0.0000,  0.0000,  0.0000)
  54 Cl     4.302376    4.488155   20.983757    ( 0.0000,  0.0000,  0.0000)
  55 Cl     5.771891    2.994778    8.271028    ( 0.0000,  0.0000,  0.0000)
  56 Cl     0.705270    5.847581    8.251104    ( 0.0000,  0.0000,  0.0000)
  57 Cl    -0.671391    1.709281   20.980844    ( 0.0000,  0.0000,  0.0000)

Unit cell:
           periodic     x           y           z      points  spacing
  1. axis:    yes    7.851007    0.000000    0.000000    45     0.1655
  2. axis:    yes    2.617002    7.851007    0.000000    48     0.1636
  3. axis:    yes    0.000000    0.000000   30.683867   175     0.1753

  Lengths:   7.851007   8.275688  30.683867
  Angles:   90.000000  90.000000  71.565053

Effective grid spacing dv^(1/3) = 0.1710

     iter     time        total  log10-change:
                         energy  eigst   dens
iter:   1 21:15:07 -4235.184822  -3.27
iter:   2 21:16:04 -4235.178363  -4.06  -3.04
iter:   3 21:17:00 -4235.162479c -4.77  -3.11
iter:   4 21:17:57 -4235.161094c -5.64  -3.40
iter:   5 21:18:53 -4235.160743c -4.68  -3.52
iter:   6 21:19:48 -4235.160213c -5.41  -3.82
iter:   7 21:20:44 -4235.160300c -5.79  -4.00c
iter:   8 21:21:39 -4235.160273c -6.81  -4.14c
iter:   9 21:22:36 -4235.160182c -5.97  -4.23c
iter:  10 21:23:32 -4235.160177c -7.00  -4.46c
iter:  11 21:24:28 -4235.160149c -6.66  -4.50c
iter:  12 21:25:23 -4235.160146c -7.47c -4.75c

Converged after 12 iterations.

Dipole moment: (-10.187054, -26.591973, -0.002616) |e|*Ang

Energy contributions relative to reference atoms: (reference = -2481378.197003)

Kinetic:       +423.509879
Potential:     -464.461759
External:        +0.000000
XC:            -4193.071089
Entropy (-ST):   -0.594411
Local:           -0.839972
Free energy:   -4235.457351
Extrapolated:  -4235.160146

Showing only first 2 kpts
 Kpt  Band  Eigenvalues  Occupancy
  0   309     -0.64195    1.87366
  0   310     -0.49063    1.53112
  0   311     -0.42128    1.24020
  0   312     -0.37977    1.03738

  1   309     -0.75715    1.95827
  1   310     -0.65257    1.88566
  1   311     -0.51946    1.62663
  1   312     -0.30779    0.68826

Fermi level: -0.37229

No gap

Forces in eV/Ang:
  0 Cu   -0.00775   -0.00307   -0.00399
  1 Cu    0.00647    0.00522    0.00154
  2 Cu    0.00534    0.00145   -0.00286
  3 Cu   -0.00433    0.01098   -0.00714
  4 Cu    0.00367   -0.00041   -0.00359
  5 Cu    0.00674    0.00485   -0.00354
  6 Cu    0.00828   -0.00552    0.00072
  7 Cu    0.00832   -0.00360   -0.00785
  8 Cu   -0.00255    0.00014    0.02267
  9 Cu   -0.00019    0.00615   -0.00840
 10 Cu   -0.00227   -0.00119    0.00295
 11 Cu   -0.00115   -0.00013   -0.00487
 12 Cu   -0.00032    0.00520   -0.01382
 13 Cu   -0.00431   -0.00650   -0.00540
 14 Cu   -0.00632    0.00423   -0.00452
 15 Cu    0.00578    0.00802    0.00426
 16 Cu    0.00749    0.00125    0.01366
 17 Cu    0.00565   -0.00478   -0.00058
 18 Cu   -0.00128    0.01746   -0.00431
 19 Cu    0.00266    0.01075    0.00519
 20 Cu    0.00897   -0.00814    0.01365
 21 Cu   -0.00888   -0.01011   -0.00082
 22 Cu    0.00074   -0.00048    0.00637
 23 Cu   -0.00271    0.00263   -0.00042
 24 Cu    0.00413   -0.00599    0.00836
 25 Cu   -0.00169    0.00195   -0.00846
 26 Cu   -0.00798   -0.00115    0.01379
 27 Cu   -0.00604    0.00861    0.00232
 28 Cu    0.00528   -0.00257   -0.01603
 29 Cu    0.00679    0.00407    0.00391
 30 Cu   -0.00921    0.00083    0.00662
 31 Cu    0.00142   -0.00956   -0.00668
 32 Cu   -0.00163    0.00733   -0.01819
 33 Cu   -0.00449   -0.00622   -0.00174
 34 Cu   -0.01472    0.00014   -0.00743
 35 Cu   -0.00102   -0.00691    0.00459
 36 Cu    0.00314    0.00158    0.00693
 37 Cu    0.00004   -0.00684    0.00550
 38 Cu    0.00364   -0.00521    0.00006
 39 Cu    0.00101    0.00426    0.00393
 40 Cu    0.00698   -0.00894    0.01114
 41 Cu   -0.00106   -0.00889   -0.00811
 42 Cu    0.01062   -0.00951   -0.00117
 43 Cu    0.00351   -0.01252   -0.01882
 44 Cu   -0.00397    0.00182   -0.00315
 45 Cu   -0.00833    0.00588   -0.01103
 46 Cu   -0.00227   -0.00309    0.00051
 47 Cu   -0.00530    0.00254    0.00240
 48 Cu    0.00551    0.00338    0.00532
 49 Cu   -0.01122   -0.00975   -0.00006
 50 Cu   -0.00175    0.01264    0.01623
 51 Cu    0.00651    0.00061   -0.00197
 52 Cu    0.00449   -0.00710    0.00251
 53 Cu   -0.00901    0.00114    0.00722
 54 Cl    0.00421    0.00836   -0.00032
 55 Cl   -0.00157    0.00198   -0.01937
 56 Cl   -0.00364    0.00796    0.01456
 57 Cl   -0.00461    0.00702    0.00686