User:   thorkong@node025.cluster
Date:   Mon Oct 17 14:50:49 2022
Arch:   x86_64
Pid:    93005
Python: 3.10.5
gpaw:   /groups/kemi/thorkong/miniconda3/envs/gpaw22/lib/python3.10/site-packages/gpaw
_gpaw:  /groups/kemi/thorkong/miniconda3/envs/gpaw22/lib/python3.10/site-packages/
        _gpaw.cpython-310-x86_64-linux-gnu.so
ase:    /groups/kemi/thorkong/miniconda3/envs/gpaw22/lib/python3.10/site-packages/ase (version 3.22.1)
numpy:  /groups/kemi/thorkong/miniconda3/envs/gpaw22/lib/python3.10/site-packages/numpy (version 1.23.0)
scipy:  /groups/kemi/thorkong/miniconda3/envs/gpaw22/lib/python3.10/site-packages/scipy (version 1.8.1)
units:  Angstrom and eV
cores: 32
OpenMP: True
OMP_NUM_THREADS: 1

Input parameters:
  basis: dzp
  kpts: [4 4 1]
  mode: {ecut: 600.0,
         name: pw}
  xc: BEEF-vdW

System changes: positions, numbers, cell, pbc, initial_charges, initial_magmoms

Initialize ...

Cu-setup:
  name: Copper
  id: f1c4d45d90492f1bbfdcb091e8418fdf
  Z: 29.0
  valence: 11
  core: 18
  charge: 0.0
  file: /groups/kemi/thorkong/miniconda3/envs/gpaw22/share/gpaw/Cu.PBE.gz
  compensation charges: gauss, rc=0.33, lmax=2
  cutoffs: 2.06(filt), 2.43(core),
  valence states:
                energy  radius
    4s(1.00)    -4.609   1.164
    4p(0.00)    -0.698   1.164
    3d(10.00)    -5.039   1.058
    *s          22.603   1.164
    *p          26.513   1.164
    *d          22.172   1.058

  LCAO basis set for Cu:
    Name: dzp
    File: /groups/kemi/thorkong/miniconda3/envs/gpaw22/share/gpaw/Cu.dzp.basis.gz
    Number of radial functions: 5
    Number of spherical harmonics: 15
      l=0, rc=8.9688 Bohr: 4s-sz confined orbital
      l=2, rc=5.1719 Bohr: 3d-sz confined orbital
      l=0, rc=5.3281 Bohr: 4s-dz split-valence wave
      l=2, rc=3.1406 Bohr: 3d-dz split-valence wave
      l=1, rc=8.9688 Bohr: p-type Gaussian polarization

Cl-setup:
  name: Chlorine
  id: 726897f06f34e53cf8e33b5885a02604
  Z: 17.0
  valence: 7
  core: 10
  charge: 0.0
  file: /groups/kemi/thorkong/miniconda3/envs/gpaw22/share/gpaw/Cl.PBE.gz
  compensation charges: gauss, rc=0.25, lmax=2
  cutoffs: 1.40(filt), 1.49(core),
  valence states:
                energy  radius
    3s(2.00)   -20.689   0.794
    3p(5.00)    -8.594   0.794
    *s           6.523   0.794
    *p          18.617   0.794
    *d           0.000   0.794

  LCAO basis set for Cl:
    Name: dzp
    File: /groups/kemi/thorkong/miniconda3/envs/gpaw22/share/gpaw/Cl.dzp.basis.gz
    Number of radial functions: 5
    Number of spherical harmonics: 13
      l=0, rc=5.1719 Bohr: 3s-sz confined orbital
      l=1, rc=6.2656 Bohr: 3p-sz confined orbital
      l=0, rc=2.8281 Bohr: 3s-dz split-valence wave
      l=1, rc=3.5156 Bohr: 3p-dz split-valence wave
      l=2, rc=6.2656 Bohr: d-type Gaussian polarization

Reference energy: -2657147.488543

Spin-paired calculation

Convergence criteria:
 Maximum [total energy] change in last 3 cyles: 0.0005 eV / electron
 Maximum integral of absolute [dens]ity change: 0.0001 electrons / valence electron
 Maximum integral of absolute [eigenst]ate change: 4e-08 eV^2 / valence electron
 Maximum number of scf [iter]ations: 333
 (Square brackets indicate name in SCF output, whereas a 'c' in
 the SCF output indicates the quantity has converged.)

Symmetries present (total): 1

  ( 1  0  0)
  ( 0  1  0)
  ( 0  0  1)

16 k-points: 4 x 4 x 1 Monkhorst-Pack grid
8 k-points in the irreducible part of the Brillouin zone
       k-points in crystal coordinates                weights
   0:     0.12500000   -0.37500000    0.00000000          2/16
   1:     0.12500000   -0.12500000    0.00000000          2/16
   2:     0.12500000    0.12500000    0.00000000          2/16
   3:     0.12500000    0.37500000    0.00000000          2/16
   4:     0.37500000   -0.37500000    0.00000000          2/16
   5:     0.37500000   -0.12500000    0.00000000          2/16
   6:     0.37500000    0.12500000    0.00000000          2/16
   7:     0.37500000    0.37500000    0.00000000          2/16

Wave functions: Plane wave expansion
  Cutoff energy: 600.000 eV
  Number of coefficients (min, max): 63070, 63184
  Pulay-stress correction: 0.000000 eV/Ang^3 (de/decut=0.000000)
  Using FFTW library
  ScaLapack parameters: grid=2x2, blocksize=64
  Wavefunction extrapolation:
    Improved wavefunction reuse through dual PAW basis

Occupation numbers: Fermi-Dirac: width=0.1000 eV

Eigensolver
   Davidson(niter=2)

Densities:
  Coarse grid: 45*48*175 grid
  Fine grid: 90*96*350 grid
  Total Charge: 0.000000

Density mixing:
  Method: separate
  Backend: pulay
  Linear mixing parameter: 0.05
  Mixing with 5 old densities
  Damping of long wave oscillations: 50

Hamiltonian:
  XC and Coulomb potentials evaluated on a 90*96*350 grid
  Using the BEEF-vdW Exchange-Correlation functional
  External potential:
    NoExternalPotential

XC parameters: BEEF-vdW with 2 nearest neighbor stencil

Total number of cores used: 32
Parallelization over k-points: 8
Domain decomposition: 1 x 1 x 4
                      2 x 2 x 8 (xc only)

Number of atoms: 72
Number of atomic orbitals: 1044
Number of bands in calculation: 436
Number of valence electrons: 720
Bands to converge: occupied

... initialized

Initializing position-dependent things.

Density initialized from atomic densities
Creating initial wave functions:
  436 bands from LCAO basis set

            Cl    Cl    Cl

          Cl    Cl     Cl
        Cl Cu  ClCu  Cl Cu

         Cu    Cu    CCu    Cu
       Cu    Cu    Cu     Cu
              Cu    Cu
           Cu    CCu    Cu
         Cu    Cu    CCu    Cu

       Cu    CCu   CCu    Cu
           Cu    CCu   CCu

         Cu    Cu    CCu    Cu
             Cu     Cu    Cu
       Cu     Cu    Cu
           Cu Cl  CuCl  Cu Cl
            Cl           Cl
                   Cl
          Cl     Cl    Cl

Positions:
   0 Cu     1.851874    1.842086   10.044767    ( 0.0000,  0.0000,  0.0000)
   1 Cu     0.572048    0.518337   11.854739    ( 0.0000,  0.0000,  0.0000)
   2 Cu     3.208369    0.549454   11.826759    ( 0.0000,  0.0000,  0.0000)
   3 Cu     1.885044    1.836608   13.699605    ( 0.0000,  0.0000,  0.0000)
   4 Cu     0.579320    0.526826   15.560947    ( 0.0000,  0.0000,  0.0000)
   5 Cu     3.185437    0.522508   15.555968    ( 0.0000,  0.0000,  0.0000)
   6 Cu     1.901068    1.854575   17.424612    ( 0.0000,  0.0000,  0.0000)
   7 Cu     0.575906    0.561899   19.206760    ( 0.0000,  0.0000,  0.0000)
   8 Cu     3.188310    0.488633   19.210481    ( 0.0000,  0.0000,  0.0000)
   9 Cu     0.574574    3.144633   11.846476    ( 0.0000,  0.0000,  0.0000)
  10 Cu     0.575916    3.143785   15.552326    ( 0.0000,  0.0000,  0.0000)
  11 Cu     0.546349    3.145891   19.206137    ( 0.0000,  0.0000,  0.0000)
  12 Cu     7.147069    1.821677   10.043621    ( 0.0000,  0.0000,  0.0000)
  13 Cu     5.794000    0.540777   11.820405    ( 0.0000,  0.0000,  0.0000)
  14 Cu     7.114080    1.831917   13.694773    ( 0.0000,  0.0000,  0.0000)
  15 Cu     5.808982    0.523918   15.556714    ( 0.0000,  0.0000,  0.0000)
  16 Cu     7.113100    1.827061   17.396972    ( 0.0000,  0.0000,  0.0000)
  17 Cu     5.807880    0.526790   19.217827    ( 0.0000,  0.0000,  0.0000)
  18 Cu     4.494064    1.763231    9.932089    ( 0.0000,  0.0000,  0.0000)
  19 Cu     4.496146    4.525263    9.931071    ( 0.0000,  0.0000,  0.0000)
  20 Cu     3.207669    3.147945   11.830838    ( 0.0000,  0.0000,  0.0000)
  21 Cu     5.791432    3.139321   11.831411    ( 0.0000,  0.0000,  0.0000)
  22 Cu     4.501104    1.833097   13.705422    ( 0.0000,  0.0000,  0.0000)
  23 Cu     4.500286    4.451342   13.700374    ( 0.0000,  0.0000,  0.0000)
  24 Cu     3.191019    3.143173   15.550169    ( 0.0000,  0.0000,  0.0000)
  25 Cu     5.806714    3.142761   15.552225    ( 0.0000,  0.0000,  0.0000)
  26 Cu     4.483820    1.848780   17.430757    ( 0.0000,  0.0000,  0.0000)
  27 Cu     4.483576    4.446716   17.420218    ( 0.0000,  0.0000,  0.0000)
  28 Cu     3.195113    3.070202   19.320757    ( 0.0000,  0.0000,  0.0000)
  29 Cu     5.840799    3.127025   19.209886    ( 0.0000,  0.0000,  0.0000)
  30 Cu     1.850636    4.467419   10.041562    ( 0.0000,  0.0000,  0.0000)
  31 Cu     1.883456    7.067453   10.032493    ( 0.0000,  0.0000,  0.0000)
  32 Cu     0.578168    5.767618   11.853682    ( 0.0000,  0.0000,  0.0000)
  33 Cu     3.207330    5.746015   11.820678    ( 0.0000,  0.0000,  0.0000)
  34 Cu     1.884398    4.451712   13.698510    ( 0.0000,  0.0000,  0.0000)
  35 Cu     1.882140    7.070634   13.694193    ( 0.0000,  0.0000,  0.0000)
  36 Cu     0.577138    5.762455   15.555937    ( 0.0000,  0.0000,  0.0000)
  37 Cu     3.190200    5.761333   15.545038    ( 0.0000,  0.0000,  0.0000)
  38 Cu     1.899950    4.455283   17.419419    ( 0.0000,  0.0000,  0.0000)
  39 Cu     1.897387    7.053708   17.430112    ( 0.0000,  0.0000,  0.0000)
  40 Cu     0.544416    5.772752   19.207193    ( 0.0000,  0.0000,  0.0000)
  41 Cu     3.197353    5.832220   19.317966    ( 0.0000,  0.0000,  0.0000)
  42 Cu     7.144990    4.448863   10.045121    ( 0.0000,  0.0000,  0.0000)
  43 Cu     7.115261    7.033008   10.044024    ( 0.0000,  0.0000,  0.0000)
  44 Cu     5.790284    5.740371   11.826573    ( 0.0000,  0.0000,  0.0000)
  45 Cu     7.115409    4.450638   13.698320    ( 0.0000,  0.0000,  0.0000)
  46 Cu     7.111993    7.067752   13.689826    ( 0.0000,  0.0000,  0.0000)
  47 Cu     5.806194    5.757852   15.551058    ( 0.0000,  0.0000,  0.0000)
  48 Cu     7.116689    4.449777   17.404260    ( 0.0000,  0.0000,  0.0000)
  49 Cu     7.119110    7.076103   17.395949    ( 0.0000,  0.0000,  0.0000)
  50 Cu     5.839650    5.752596   19.206190    ( 0.0000,  0.0000,  0.0000)
  51 Cu     4.502840    7.106124   10.040718    ( 0.0000,  0.0000,  0.0000)
  52 Cu     4.505854    7.072213   13.694900    ( 0.0000,  0.0000,  0.0000)
  53 Cu     4.482985    7.045347   17.423899    ( 0.0000,  0.0000,  0.0000)
  54 Cl     3.111134    4.453599   21.202893    ( 0.0000,  0.0000,  0.0000)
  55 Cl     4.580310    3.143724    8.048163    ( 0.0000,  0.0000,  0.0000)
  56 Cl     1.867046    5.767436    8.237027    ( 0.0000,  0.0000,  0.0000)
  57 Cl     0.561128    1.853895   21.006449    ( 0.0000,  0.0000,  0.0000)
  58 Cl     5.840224    7.039810   21.008038    ( 0.0000,  0.0000,  0.0000)
  59 Cl     7.093286    0.367959    8.057112    ( 0.0000,  0.0000,  0.0000)
  60 Cl     7.130126    5.740935    8.244573    ( 0.0000,  0.0000,  0.0000)
  61 Cl     5.824339    1.826908   21.013856    ( 0.0000,  0.0000,  0.0000)
  62 Cl     0.561128    7.353895   21.006449    ( 0.0000,  0.0000,  0.0000)
  63 Cl     1.699919    0.405738    8.070012    ( 0.0000,  0.0000,  0.0000)
  64 Cl     4.498586    5.754186    8.240800    ( 0.0000,  0.0000,  0.0000)
  65 Cl     3.192734    1.840401   21.010153    ( 0.0000,  0.0000,  0.0000)
  66 Cl     5.832282    4.433359   21.010947    ( 0.0000,  0.0000,  0.0000)
  67 Cl     1.783482    3.086587    8.153520    ( 0.0000,  0.0000,  0.0000)
  68 Cl     4.396602    0.386848    8.063562    ( 0.0000,  0.0000,  0.0000)
  69 Cl     3.200676    7.196853   21.007243    ( 0.0000,  0.0000,  0.0000)
[...]
             Cu     Cu    Cu    Cl
                 Cl
                         Cl
         Cl      Cl      Cl

[...]

         Cu    CCu   CCu    Cu
            Cu     Cu    Cu
             Cu     Cu    Cu
           Cu   CCu    CCu   Cu
               Cu
         Cu     Cu   CCu    Cu
             Cu     Cu    Cu    Cl
                 Cl
                         Cl
         Cl      Cl      Cl

[...]

                Cl
        Cl  Cu     CCl   Cu

           Cu   CCu    CCu   Cu
         Cu    CCu   CCu    Cu

            CCu    CCu   CCu
           Cu   CCu    CCu   Cu

         Cu    CCu   CCu    Cu
            Cu     Cu
             Cu     Cu   CCu
           Cu   CCu    CCu   Cu

[...]

                       Cll
                         Cl
            Cl
                       Cl
               Cl
        Cl   Cu    CCl   Cu

           Cu    Cu    CCu   Cu
         Cu    CCu   CCu    Cu

             Cu    CCu   CCu
           Cu   CCu    CCu   Cu

         Cu    CCu   CCu    Cu
            Cu     Cu
             Cu     Cu   CCu
           Cu   CCu    CCu   Cu

         Cu    CCu   CCu    Cu
              Cu    Cu    Cu    Cl
                 Cl
                         Cl
         Cl      Cl     Cl

               Cl      Cl

[...]

               Cl
        Cl   Cu    CCl    Cu
           Cu    Cu    Cu     Cu
                 Cu     Cu
         Cu    CCu   CCu    Cu
             Cu    Cu    Cu
             Cu     Cu    Cu
           Cu    Cu    CCu   Cu
               Cu    Cu     Cu
         Cu     Cu    Cu
            CCu    CCu   CCu
           Cu    Cu    Cu    Cu
                 Cu     Cu
         Cu    CCu   CCu    Cu
                                Cl
              Cu    Cu    Cu
                 Cl      Cl
         Cl              Cl
                 Cl
               Cl
                       Cl

[...]

               Cl
        Cl   Cu    CCl    Cu
                 Cu    Cu     Cu
           Cu    Cu     Cu
         Cu    CCu    Cu    Cu
             Cu    Cu    Cu
             Cu     Cu    Cu
           Cu    Cu    CCu   Cu
               Cu    Cu     Cu
         Cu     Cu    Cu
             Cu    CCu   CCu
                 Cu    Cu    Cu
           Cu    Cu     Cu
         Cu    CCu   CCu    Cu
                                Cl
              Cu    Cu    Cu
                  Cl     Cl
         Cl              Cl
                 Cl
               Cl
                       Cl

[...]

               Cl
        Cl   Cu    CCl    Cu
                 Cu    Cu     Cu
           Cu    Cu     Cu
          Cu   CCu    Cu    Cu
             Cu    Cu     Cu
             Cu     Cu    Cu
           Cu    Cu    CCu   Cu
               Cu    Cu     Cu
         Cu     Cu    Cu
             Cu    CCu   CCu
                 Cu    Cu    Cu
           Cu    Cu     Cu
         Cu    CCu   CCu    Cu
                                Cl
              Cu    Cu    Cu
                  Cl     Cl
                         Cl
         Cl      Cl
               Cl
                       Cl

[...]

               Cl
        Cl   Cu    CCl    Cu
                 Cu    Cu     Cu
           Cu    Cu     Cu
          Cu   CCu    Cu    Cu
             Cu    Cu     Cu
              Cu    Cu    Cu
           Cu    CCu   CCu    Cu

          Cu   CCu    Cu    Cu
             CCu   CCu   CCu
                 Cu    Cu    Cu
           Cu     Cu    Cu
          Cu   CCu   CCu    Cu
                                Cl
              Cu    Cu    Cu
                  Cl     Cl
                         Cl
         Cl      Cl
               Cl
                       Cl

[...]

               Cl
        Cl   Cu    CCl    Cu
                 Cu    Cu     Cu
           Cu    Cu     Cu
          Cu   CCu    CCu   Cu
             Cu    Cu     Cu
              Cu    Cu    Cu
           Cu    CCu   CCu    Cu

          Cu   CCu    Cu    Cu
             CCu   CCu   CCu
                 Cu    Cu    Cu
           Cu     Cu    Cu
          Cu   CCu    Cu    Cu
                                Cl
              Cu    Cu     Cu
                  Cl     Cl
                         Cl
         Cl      Cl
               Cl
                       Cl

[...]

               Cl
        Cl   Cu    CCl    Cu
                 Cu    Cu     Cu
           Cu    Cu     Cu
          Cu   CCu    CCu   Cu
                   Cu
             CCu    Cu    Cu
           Cu    CCu   CCu    Cu

[...]

               Cl
        Cl   Cu    CCl    Cu
                 Cu    Cu     Cu
           Cu    Cu     Cu
          Cu   CCu    CCu   Cu

             CCu   CCu    Cu
           Cu    CCu   CCu    Cu

          Cu   CCu    Cu    Cu
             CCu   CCu   CCu
                 Cu    Cu    Cu
           Cu     Cu    Cu
          Cu   CCu    Cu    Cu
                                Cl
              Cu    Cu     Cu
                  Cl     Cl
                         Cl
         Cl      Cl
               Cl
                       Cl

[...]

               Cl
        Cl   Cu    CCl    Cu
                       Cu     Cu
           Cu    Cu     Cu
          Cu   CCu    CCu   Cu

[...]

          Cu   CCu    Cu    Cu
             CCu   CCu    Cu
                 Cu    Cu    Cu
           Cu     Cu    Cu
          Cu   CCu    Cu    Cu
                                Cl
              Cu    Cu     Cu
                  Cl     Cl
                         Cl
         Cl      Cl
               Cl
                       Cl

[...]

          Cu   CCu    Cu    Cu
             CCu   CCu    Cu
                 Cu    Cu     Cu
           Cu     Cu    Cu
          Cu   CCu    Cu    Cu
                                Cl
              Cu    Cu     Cu
                  Cl     Cl
                         Cl
         Cl      Cl
               Cl
                       Cl

[...]

System changes: positions

Initializing position-dependent things.

Density initialized from wave functions

[...]

                       Cll
                         Cl
            Cl         Cl

               Cl
        Cl   Cu    CCl    Cu
                 Cu    Cu     Cu
           Cu     Cu    Cu
          Cu   CCu    CCu   Cu

             CCu   CCu    Cu
           Cu    CCu   CCu    Cu

          Cu   CCu    Cu    Cu
             CCu   CCu    Cu
                 Cu           Cu
           Cu     Cu   CCu
          Cu   CCu    Cu    Cu
                                Cl
              Cu    Cu     Cu
                  Cl     Cl
                         Cl
         Cl      Cl
               Cl
                       Cl

                        Cl

Positions:
   0 Cu     1.948893    1.889647    9.852479    ( 0.0000,  0.0000,  0.0000)
   1 Cu     0.577468    0.568444   11.807151    ( 0.0000,  0.0000,  0.0000)
   2 Cu     3.191603    0.565667   11.787412    ( 0.0000,  0.0000,  0.0000)
   3 Cu     1.877504    1.855255   13.671070    ( 0.0000,  0.0000,  0.0000)
   4 Cu     0.562437    0.550687   15.493139    ( 0.0000,  0.0000,  0.0000)
   5 Cu     3.192830    0.538361   15.501617    ( 0.0000,  0.0000,  0.0000)
   6 Cu     1.864744    1.842161   17.338852    ( 0.0000,  0.0000,  0.0000)
   7 Cu     0.632743    0.543659   19.209316    ( 0.0000,  0.0000,  0.0000)
   8 Cu     3.249522    0.585264   19.291757    ( 0.0000,  0.0000,  0.0000)
   9 Cu     0.574261    3.156133   11.817855    ( 0.0000,  0.0000,  0.0000)
  10 Cu     0.539202    3.168111   15.498805    ( 0.0000,  0.0000,  0.0000)
  11 Cu     0.484736    3.166918   19.216495    ( 0.0000,  0.0000,  0.0000)
  12 Cu     7.187591    1.846853    9.971084    ( 0.0000,  0.0000,  0.0000)
  13 Cu     5.799670    0.563702   11.809663    ( 0.0000,  0.0000,  0.0000)
  14 Cu     7.102561    1.861617   13.657857    ( 0.0000,  0.0000,  0.0000)
  15 Cu     5.796570    0.551973   15.493268    ( 0.0000,  0.0000,  0.0000)
  16 Cu     7.092436    1.841431   17.370941    ( 0.0000,  0.0000,  0.0000)
  17 Cu     5.881918    0.522810   19.284369    ( 0.0000,  0.0000,  0.0000)
  18 Cu     4.581957    1.861383    9.878013    ( 0.0000,  0.0000,  0.0000)
  19 Cu     4.453906    4.499818    9.926053    ( 0.0000,  0.0000,  0.0000)
  20 Cu     3.174304    3.148741   11.784634    ( 0.0000,  0.0000,  0.0000)
  21 Cu     5.780576    3.156677   11.787795    ( 0.0000,  0.0000,  0.0000)
  22 Cu     4.479897    1.867777   13.655002    ( 0.0000,  0.0000,  0.0000)
  23 Cu     4.474516    4.470466   13.659700    ( 0.0000,  0.0000,  0.0000)
  24 Cu     3.168436    3.170974   15.512464    ( 0.0000,  0.0000,  0.0000)
  25 Cu     5.782183    3.156631   15.503192    ( 0.0000,  0.0000,  0.0000)
  26 Cu     4.483174    1.833760   17.364607    ( 0.0000,  0.0000,  0.0000)
  27 Cu     4.485402    4.480834   17.356490    ( 0.0000,  0.0000,  0.0000)
  28 Cu     3.112241    3.175384   19.128633    ( 0.0000,  0.0000,  0.0000)
  29 Cu     5.743662    3.176909   19.243779    ( 0.0000,  0.0000,  0.0000)
  30 Cu     1.816695    4.465684   10.003287    ( 0.0000,  0.0000,  0.0000)
  31 Cu     1.843439    7.095160    9.992824    ( 0.0000,  0.0000,  0.0000)
  32 Cu     0.532704    5.778208   11.818825    ( 0.0000,  0.0000,  0.0000)
  33 Cu     3.172222    5.788836   11.809901    ( 0.0000,  0.0000,  0.0000)
  34 Cu     1.865503    4.476888   13.658510    ( 0.0000,  0.0000,  0.0000)
  35 Cu     1.869448    7.092370   13.654696    ( 0.0000,  0.0000,  0.0000)
  36 Cu     0.549317    5.780146   15.496493    ( 0.0000,  0.0000,  0.0000)
  37 Cu     3.180044    5.788155   15.505533    ( 0.0000,  0.0000,  0.0000)
  38 Cu     1.838365    4.474787   17.337089    ( 0.0000,  0.0000,  0.0000)
  39 Cu     1.882834    7.100552   17.348722    ( 0.0000,  0.0000,  0.0000)
  40 Cu     0.544717    5.746964   19.169852    ( 0.0000,  0.0000,  0.0000)
  41 Cu     3.173146    5.778598   19.185669    ( 0.0000,  0.0000,  0.0000)
  42 Cu     7.041696    4.474271    9.950049    ( 0.0000,  0.0000,  0.0000)
  43 Cu     7.053324    7.076799    9.971136    ( 0.0000,  0.0000,  0.0000)
  44 Cu     5.753819    5.782112   11.779264    ( 0.0000,  0.0000,  0.0000)
  45 Cu     7.079267    4.472712   13.649875    ( 0.0000,  0.0000,  0.0000)
  46 Cu     7.100405    7.090383   13.644001    ( 0.0000,  0.0000,  0.0000)
  47 Cu     5.791456    5.787396   15.491805    ( 0.0000,  0.0000,  0.0000)
  48 Cu     7.058484    4.464953   17.374364    ( 0.0000,  0.0000,  0.0000)
  49 Cu     7.124690    7.097285   17.366893    ( 0.0000,  0.0000,  0.0000)
  50 Cu     5.815148    5.765415   19.234392    ( 0.0000,  0.0000,  0.0000)
  51 Cu     4.487807    7.071581    9.942768    ( 0.0000,  0.0000,  0.0000)
  52 Cu     4.489082    7.101564   13.656382    ( 0.0000,  0.0000,  0.0000)
  53 Cu     4.511041    7.110389   17.364889    ( 0.0000,  0.0000,  0.0000)
  54 Cl     1.892554    4.467930   20.831668    ( 0.0000,  0.0000,  0.0000)
  55 Cl     5.174884    4.211126    4.724164    ( 0.0000,  0.0000,  0.0000)
  56 Cl     1.437123    5.643053    4.700474    ( 0.0000,  0.0000,  0.0000)
  57 Cl    -0.309290    1.799710   20.977867    ( 0.0000,  0.0000,  0.0000)
  58 Cl     5.854817    4.856950   23.316106    ( 0.0000,  0.0000,  0.0000)
  59 Cl     6.508865   -0.228125    5.028579    ( 0.0000,  0.0000,  0.0000)
  60 Cl     8.402936    5.810874    8.361045    ( 0.0000,  0.0000,  0.0000)
  61 Cl     6.244573    0.336454   26.238311    ( 0.0000,  0.0000,  0.0000)
  62 Cl     0.924469    7.178793   24.494558    ( 0.0000,  0.0000,  0.0000)
  63 Cl     0.531544    0.330656    8.290348    ( 0.0000,  0.0000,  0.0000)
  64 Cl     5.343730    5.946880    5.735481    ( 0.0000,  0.0000,  0.0000)
  65 Cl     4.275783    2.259720   20.934019    ( 0.0000,  0.0000,  0.0000)
  66 Cl     5.942482    3.217484   24.490725    ( 0.0000,  0.0000,  0.0000)
  67 Cl     3.071046    3.747629    8.167923    ( 0.0000,  0.0000,  0.0000)
  68 Cl     3.761523    0.519026    8.129934    ( 0.0000,  0.0000,  0.0000)
  69 Cl     4.424011    6.947208   20.885153    ( 0.0000,  0.0000,  0.0000)
  70 Cl    -0.170331    6.958721   21.016889    ( 0.0000,  0.0000,  0.0000)
  71 Cl     6.327818    3.070201    8.177245    ( 0.0000,  0.0000,  0.0000)

Unit cell:
           periodic     x           y           z      points  spacing
  1. axis:    yes    7.851007    0.000000    0.000000    45     0.1655
  2. axis:    yes    2.617002    7.851007    0.000000    48     0.1636
  3. axis:    yes    0.000000    0.000000   30.683867   175     0.1753

  Lengths:   7.851007   8.275688  30.683867
  Angles:   90.000000  90.000000  71.565053

Effective grid spacing dv^(1/3) = 0.1710

     iter     time        total  log10-change:
                         energy  eigst   dens
iter:   1 17:58:22 -4740.986124  -3.56
iter:   2 17:59:11 -4740.985662  -4.80  -3.38
iter:   3 17:59:59 -4740.986746c -5.27  -3.44
iter:   4 18:01:03 -4740.983347c -4.93  -3.36
iter:   5 18:01:52 -4740.982868c -6.14  -3.76
iter:   6 18:02:41 -4740.983402c -5.22  -3.86
iter:   7 18:03:30 -4740.983022c -6.45  -4.08c
iter:   8 18:04:19 -4740.982767c -5.89  -4.25c
iter:   9 18:05:08 -4740.982721c -6.90  -4.34c
iter:  10 18:05:57 -4740.982707c -7.26  -4.45c
iter:  11 18:07:14 -4740.982703c -7.07  -4.59c
iter:  12 18:08:09 -4740.982697c -7.92c -4.89c

Converged after 12 iterations.

Dipole moment: (-25.466067, -34.530514, 0.039517) |e|*Ang

Energy contributions relative to reference atoms: (reference = -2657147.488543)

Kinetic:       +548.890537
Potential:     -571.914608
External:        +0.000000
XC:            -4716.928873
Entropy (-ST):   -0.549800
Local:           -0.754853
Free energy:   -4741.257597
Extrapolated:  -4740.982697

Showing only first 2 kpts
 Kpt  Band  Eigenvalues  Occupancy
  0   358      0.14287    1.96121
  0   359      0.31394    1.80270
  0   360      0.36257    1.69779
  0   361      0.56236    0.86487

  1   358      0.37252    1.67138
  1   359      0.41109    1.55141
  1   360      0.60907    0.64644
  1   361      0.69136    0.34676

Fermi level: 0.53517

No gap

Forces in eV/Ang:
  0 Cu    0.00460   -0.01325   -0.00512
  1 Cu   -0.00155   -0.00562    0.00382
  2 Cu    0.00293   -0.00340    0.00051
  3 Cu    0.00342   -0.00558    0.00267
  4 Cu   -0.00097    0.00016    0.00543
  5 Cu   -0.00620    0.00212    0.00062
  6 Cu    0.00457    0.00242    0.00518
  7 Cu   -0.00662    0.00790   -0.01259
  8 Cu   -0.00894   -0.00327    0.00180
  9 Cu    0.00422   -0.00156   -0.00245
 10 Cu    0.00666   -0.00608    0.01045
 11 Cu    0.00902    0.00722   -0.00260
 12 Cu    0.01095    0.00795   -0.00641
 13 Cu    0.00180   -0.00136    0.00088
 14 Cu    0.00461   -0.00201    0.00391
 15 Cu   -0.00345    0.00150   -0.00225
 16 Cu   -0.00099   -0.00516    0.00999
 17 Cu   -0.01110   -0.00351    0.01332
 18 Cu    0.00308    0.00406   -0.00338
 19 Cu    0.00453    0.00499    0.00880
 20 Cu    0.00391   -0.00289    0.00390
 21 Cu    0.00716   -0.00304    0.00331
 22 Cu    0.00186   -0.00417    0.00506
 23 Cu    0.00399   -0.00854    0.00537
 24 Cu    0.00444   -0.00324    0.00187
 25 Cu    0.01077   -0.00092    0.00097
 26 Cu    0.00301    0.00819    0.00228
 27 Cu   -0.00479   -0.00322   -0.00228
 28 Cu    0.00947   -0.00075    0.00198
 29 Cu    0.00752    0.00776    0.00496
 30 Cu   -0.00042   -0.01083   -0.01155
 31 Cu   -0.00021   -0.00406    0.00168
 32 Cu   -0.00001   -0.00046   -0.00223
 33 Cu   -0.00873   -0.00912    0.00248
 34 Cu   -0.00114   -0.00373    0.00716
 35 Cu   -0.00846   -0.00360    0.00856
 36 Cu   -0.00183   -0.00095    0.01409
 37 Cu    0.00023   -0.00086    0.00477
 38 Cu    0.00928    0.00482   -0.00267
 39 Cu   -0.00303    0.00011   -0.00103
 40 Cu   -0.00936    0.00716    0.00557
 41 Cu   -0.00805    0.00224   -0.00887
 42 Cu    0.00067   -0.00193    0.00807
 43 Cu    0.00089    0.00191    0.00157
 44 Cu   -0.00556    0.00087    0.01042
 45 Cu    0.00663    0.00285    0.00690
 46 Cu   -0.00439   -0.00042    0.00303
 47 Cu   -0.00110    0.00212    0.00690
 48 Cu   -0.00108   -0.00638    0.00194
 49 Cu    0.00121    0.00894    0.00119
 50 Cu    0.00045    0.00169   -0.01297
 51 Cu    0.00155    0.00089    0.00382
 52 Cu   -0.00816   -0.00751    0.00069
 53 Cu   -0.00358    0.00263   -0.00804
 54 Cl   -0.00124    0.01780    0.00894
 55 Cl   -0.00645    0.00560   -0.00622
 56 Cl   -0.00334    0.00431   -0.01456
 57 Cl   -0.00139    0.01076   -0.01691
 58 Cl   -0.01288    0.00393   -0.00600
 59 Cl   -0.01669    0.01207   -0.00676
 60 Cl   -0.00387    0.00682   -0.00630
 61 Cl    0.01632   -0.01976   -0.01522
 62 Cl   -0.00202    0.00764   -0.01927
 63 Cl    0.00878    0.01122   -0.01625
 64 Cl    0.00796    0.00057   -0.00633
 65 Cl    0.00487   -0.00115    0.00571
 66 Cl    0.01600   -0.01204    0.00610
 67 Cl    0.00274    0.00480   -0.00299
 68 Cl    0.00256    0.00342   -0.00380
 69 Cl   -0.01558   -0.01906   -0.01006
 70 Cl   -0.01164   -0.00811    0.00970
 71 Cl    0.00957    0.00423    0.00588