User:   thorkong@node027.cluster
Date:   Fri Oct 14 07:18:11 2022
Arch:   x86_64
Pid:    20846
Python: 3.10.5
gpaw:   /groups/kemi/thorkong/miniconda3/envs/gpaw22/lib/python3.10/site-packages/gpaw
_gpaw:  /groups/kemi/thorkong/miniconda3/envs/gpaw22/lib/python3.10/site-packages/
        _gpaw.cpython-310-x86_64-linux-gnu.so
ase:    /groups/kemi/thorkong/miniconda3/envs/gpaw22/lib/python3.10/site-packages/ase (version 3.22.1)
numpy:  /groups/kemi/thorkong/miniconda3/envs/gpaw22/lib/python3.10/site-packages/numpy (version 1.23.0)
scipy:  /groups/kemi/thorkong/miniconda3/envs/gpaw22/lib/python3.10/site-packages/scipy (version 1.8.1)
units:  Angstrom and eV
cores: 32
OpenMP: True
OMP_NUM_THREADS: 1

Input parameters:
  basis: dzp
  kpts: [4 4 1]
  mode: {ecut: 600.0,
         name: pw}
  xc: BEEF-vdW

System changes: positions, numbers, cell, pbc, initial_charges, initial_magmoms

Initialize ...

Cu-setup:
  name: Copper
  id: f1c4d45d90492f1bbfdcb091e8418fdf
  Z: 29.0
  valence: 11
  core: 18
  charge: 0.0
  file: /groups/kemi/thorkong/miniconda3/envs/gpaw22/share/gpaw/Cu.PBE.gz
  compensation charges: gauss, rc=0.33, lmax=2
  cutoffs: 2.06(filt), 2.43(core),
  valence states:
                energy  radius
    4s(1.00)    -4.609   1.164
    4p(0.00)    -0.698   1.164
    3d(10.00)    -5.039   1.058
    *s          22.603   1.164
    *p          26.513   1.164
    *d          22.172   1.058

  LCAO basis set for Cu:
    Name: dzp
    File: /groups/kemi/thorkong/miniconda3/envs/gpaw22/share/gpaw/Cu.dzp.basis.gz
    Number of radial functions: 5
    Number of spherical harmonics: 15
      l=0, rc=8.9688 Bohr: 4s-sz confined orbital
      l=2, rc=5.1719 Bohr: 3d-sz confined orbital
      l=0, rc=5.3281 Bohr: 4s-dz split-valence wave
      l=2, rc=3.1406 Bohr: 3d-dz split-valence wave
      l=1, rc=8.9688 Bohr: p-type Gaussian polarization

Cl-setup:
  name: Chlorine
  id: 726897f06f34e53cf8e33b5885a02604
  Z: 17.0
  valence: 7
  core: 10
  charge: 0.0
  file: /groups/kemi/thorkong/miniconda3/envs/gpaw22/share/gpaw/Cl.PBE.gz
  compensation charges: gauss, rc=0.25, lmax=2
  cutoffs: 1.40(filt), 1.49(core),
  valence states:
                energy  radius
    3s(2.00)   -20.689   0.794
    3p(5.00)    -8.594   0.794
    *s           6.523   0.794
    *p          18.617   0.794
    *d           0.000   0.794

  LCAO basis set for Cl:
    Name: dzp
    File: /groups/kemi/thorkong/miniconda3/envs/gpaw22/share/gpaw/Cl.dzp.basis.gz
    Number of radial functions: 5
    Number of spherical harmonics: 13
      l=0, rc=5.1719 Bohr: 3s-sz confined orbital
      l=1, rc=6.2656 Bohr: 3p-sz confined orbital
      l=0, rc=2.8281 Bohr: 3s-dz split-valence wave
      l=1, rc=3.5156 Bohr: 3p-dz split-valence wave
      l=2, rc=6.2656 Bohr: d-type Gaussian polarization

Reference energy: -3291764.330143

Spin-paired calculation

Convergence criteria:
 Maximum [total energy] change in last 3 cyles: 0.0005 eV / electron
 Maximum integral of absolute [dens]ity change: 0.0001 electrons / valence electron
 Maximum integral of absolute [eigenst]ate change: 4e-08 eV^2 / valence electron
 Maximum number of scf [iter]ations: 333
 (Square brackets indicate name in SCF output, whereas a 'c' in
 the SCF output indicates the quantity has converged.)

Symmetries present (total): 1

  ( 1  0  0)
  ( 0  1  0)
  ( 0  0  1)

16 k-points: 4 x 4 x 1 Monkhorst-Pack grid
8 k-points in the irreducible part of the Brillouin zone
       k-points in crystal coordinates                weights
   0:     0.12500000   -0.37500000    0.00000000          2/16
   1:     0.12500000   -0.12500000    0.00000000          2/16
   2:     0.12500000    0.12500000    0.00000000          2/16
   3:     0.12500000    0.37500000    0.00000000          2/16
   4:     0.37500000   -0.37500000    0.00000000          2/16
   5:     0.37500000   -0.12500000    0.00000000          2/16
   6:     0.37500000    0.12500000    0.00000000          2/16
   7:     0.37500000    0.37500000    0.00000000          2/16

Wave functions: Plane wave expansion
  Cutoff energy: 600.000 eV
  Number of coefficients (min, max): 66642, 66743
  Pulay-stress correction: 0.000000 eV/Ang^3 (de/decut=0.000000)
  Using FFTW library
  ScaLapack parameters: grid=2x2, blocksize=64
  Wavefunction extrapolation:
    Improved wavefunction reuse through dual PAW basis

Occupation numbers: Fermi-Dirac: width=0.1000 eV

Eigensolver
   Davidson(niter=2)

Densities:
  Coarse grid: 45*42*196 grid
  Fine grid: 90*84*392 grid
  Total Charge: 0.000000

Density mixing:
  Method: separate
  Backend: pulay
  Linear mixing parameter: 0.05
  Mixing with 5 old densities
  Damping of long wave oscillations: 50

Hamiltonian:
  XC and Coulomb potentials evaluated on a 90*84*392 grid
  Using the BEEF-vdW Exchange-Correlation functional
  External potential:
    NoExternalPotential

XC parameters: BEEF-vdW with 2 nearest neighbor stencil

Total number of cores used: 32
Parallelization over k-points: 8
Domain decomposition: 1 x 1 x 4
                      2 x 2 x 8 (xc only)

Number of atoms: 76
Number of atomic orbitals: 1132
Number of bands in calculation: 496
Number of valence electrons: 820
Bands to converge: occupied

... initialized

Initializing position-dependent things.

Density initialized from atomic densities
Creating initial wave functions:
  496 bands from LCAO basis set

 |    |           Cl     |
 |    |  Cl  CuCu    Cu  |
 |  CuCu   CCu   CuCu    |
 |    |  Cu    Cu    Cu  |
 |Cu  Cu    CuCu   Cu    |
 |  Cu|  CCu   CuCu  Cu  |
 |Cu  CuCu  CuCu   Cu    |
 |  Cu|  CuCuCuCuCu  Cu  |
 |Cu  | Cu    Cu         |
 |  CuCu CuCCu CuCuCuCu  |
 |Cu  |       Cu         |
 |  CuCu CCuCu CuCuCuCu  |
 |    |Cu    Cu    Cu    |
 |CuCuCuCuCuCuCu CuCu    |
 |    |       Cl         |

Positions:
   0 Cu     2.893249   -0.009013   10.079935    ( 0.0000,  0.0000,  0.0000)
   1 Cu     1.591035    1.857611   11.262661    ( 0.0000,  0.0000,  0.0000)
   2 Cu     4.201834    1.841809   11.295676    ( 0.0000,  0.0000,  0.0000)
   3 Cu     0.277666   -0.009469   10.084997    ( 0.0000,  0.0000,  0.0000)
   4 Cu     0.277849    0.003618   12.626767    ( 0.0000,  0.0000,  0.0000)
   5 Cu     4.202668    1.862513   13.923708    ( 0.0000,  0.0000,  0.0000)
   6 Cu     1.586463    1.852775   13.921192    ( 0.0000,  0.0000,  0.0000)
   7 Cu     2.889400    0.003545   12.629227    ( 0.0000,  0.0000,  0.0000)
   8 Cu     2.895466   -0.000271   15.229461    ( 0.0000,  0.0000,  0.0000)
   9 Cu     1.588247    1.851385   16.545856    ( 0.0000,  0.0000,  0.0000)
  10 Cu     4.201591    1.852496   16.545727    ( 0.0000,  0.0000,  0.0000)
  11 Cu     0.277809    0.001734   15.236454    ( 0.0000,  0.0000,  0.0000)
  12 Cu     0.278211    0.000883   17.850829    ( 0.0000,  0.0000,  0.0000)
  13 Cu     4.204728    1.850775   19.171325    ( 0.0000,  0.0000,  0.0000)
  14 Cu     1.584458    1.852521   19.171085    ( 0.0000,  0.0000,  0.0000)
  15 Cu     2.894601    0.002325   17.849783    ( 0.0000,  0.0000,  0.0000)
  16 Cu     2.894236    0.012687   20.468701    ( 0.0000,  0.0000,  0.0000)
  17 Cu     1.584204    1.855644   21.820509    ( 0.0000,  0.0000,  0.0000)
  18 Cu     4.205662    1.855442   21.821840    ( 0.0000,  0.0000,  0.0000)
  19 Cu     0.277320    0.003097   20.469516    ( 0.0000,  0.0000,  0.0000)
  20 Cu     0.282256    0.008318   23.110120    ( 0.0000,  0.0000,  0.0000)
  21 Cu     4.232873    1.841925   24.430560    ( 0.0000,  0.0000,  0.0000)
  22 Cu     1.555398    1.844008   24.424642    ( 0.0000,  0.0000,  0.0000)
  23 Cu     2.895568   -0.008221   23.079835    ( 0.0000,  0.0000,  0.0000)
  24 Cu     2.864475    3.710782    9.962758    ( 0.0000,  0.0000,  0.0000)
  25 Cu     1.591976    5.541691   11.280182    ( 0.0000,  0.0000,  0.0000)
  26 Cu     4.202041    5.558211   11.310184    ( 0.0000,  0.0000,  0.0000)
  27 Cu     0.277822    3.707697   10.093271    ( 0.0000,  0.0000,  0.0000)
  28 Cu     0.277595    3.695861   12.630222    ( 0.0000,  0.0000,  0.0000)
  29 Cu     4.203472    5.539712   13.923294    ( 0.0000,  0.0000,  0.0000)
  30 Cu     1.585302    5.549330   13.921336    ( 0.0000,  0.0000,  0.0000)
  31 Cu     2.891979    3.696489   12.570906    ( 0.0000,  0.0000,  0.0000)
  32 Cu     2.893008    3.701406   15.220839    ( 0.0000,  0.0000,  0.0000)
  33 Cu     1.586757    5.551594   16.543688    ( 0.0000,  0.0000,  0.0000)
  34 Cu     4.203073    5.549574   16.542388    ( 0.0000,  0.0000,  0.0000)
  35 Cu     0.277652    3.699826   15.228727    ( 0.0000,  0.0000,  0.0000)
  36 Cu     0.278347    3.700871   17.844615    ( 0.0000,  0.0000,  0.0000)
  37 Cu     4.202226    5.552299   19.162667    ( 0.0000,  0.0000,  0.0000)
  38 Cu     1.587282    5.550511   19.162081    ( 0.0000,  0.0000,  0.0000)
  39 Cu     2.896094    3.699332   17.846167    ( 0.0000,  0.0000,  0.0000)
  40 Cu     2.895034    3.689744   20.468648    ( 0.0000,  0.0000,  0.0000)
  41 Cu     1.581145    5.547784   21.761122    ( 0.0000,  0.0000,  0.0000)
  42 Cu     4.208363    5.548067   21.763035    ( 0.0000,  0.0000,  0.0000)
  43 Cu     0.277513    3.699240   20.468279    ( 0.0000,  0.0000,  0.0000)
  44 Cu     0.282403    3.692379   23.126419    ( 0.0000,  0.0000,  0.0000)
  45 Cu     4.204347    5.557399   24.312269    ( 0.0000,  0.0000,  0.0000)
  46 Cu     1.585207    5.556171   24.307688    ( 0.0000,  0.0000,  0.0000)
  47 Cu     2.895682    3.707975   23.099015    ( 0.0000,  0.0000,  0.0000)
  48 Cu     6.815902    1.857266   11.266864    ( 0.0000,  0.0000,  0.0000)
  49 Cu     5.512292   -0.007627   10.084231    ( 0.0000,  0.0000,  0.0000)
  50 Cu     5.516568    0.003856   12.630858    ( 0.0000,  0.0000,  0.0000)
  51 Cu     6.820227    1.852728   13.924166    ( 0.0000,  0.0000,  0.0000)
  52 Cu     6.819210    1.851175   16.547654    ( 0.0000,  0.0000,  0.0000)
  53 Cu     5.510471    0.001413   15.229784    ( 0.0000,  0.0000,  0.0000)
  54 Cu     5.510806    0.000434   17.848219    ( 0.0000,  0.0000,  0.0000)
  55 Cu     6.820027    1.852260   19.163515    ( 0.0000,  0.0000,  0.0000)
  56 Cu     6.820094    1.855667   21.761999    ( 0.0000,  0.0000,  0.0000)
  57 Cu     5.512423    0.002682   20.470960    ( 0.0000,  0.0000,  0.0000)
  58 Cu     5.506106    0.008663   23.111884    ( 0.0000,  0.0000,  0.0000)
  59 Cu     6.819522    1.843288   24.299220    ( 0.0000,  0.0000,  0.0000)
  60 Cu     6.814604    5.542052   11.281643    ( 0.0000,  0.0000,  0.0000)
  61 Cu     5.541587    3.708289    9.968467    ( 0.0000,  0.0000,  0.0000)
  62 Cu     5.513459    3.696217   12.572367    ( 0.0000,  0.0000,  0.0000)
  63 Cu     6.820366    5.548841   13.922651    ( 0.0000,  0.0000,  0.0000)
  64 Cu     6.819498    5.551245   16.541105    ( 0.0000,  0.0000,  0.0000)
  65 Cu     5.513131    3.699586   15.221299    ( 0.0000,  0.0000,  0.0000)
  66 Cu     5.509488    3.700623   17.846432    ( 0.0000,  0.0000,  0.0000)
  67 Cu     6.819828    5.550615   19.155631    ( 0.0000,  0.0000,  0.0000)
  68 Cu     6.819845    5.546713   21.765705    ( 0.0000,  0.0000,  0.0000)
  69 Cu     5.511227    3.699174   20.471342    ( 0.0000,  0.0000,  0.0000)
  70 Cu     5.505644    3.692016   23.130762    ( 0.0000,  0.0000,  0.0000)
[...]
 22 Cu    0.05420    0.00312    0.07126
 23 Cu   -0.00309   -0.01611   -0.03699
 24 Cu    0.06621   -0.01621   -0.07561
 25 Cu   -0.00051   -0.13687    0.23896
 26 Cu    0.00691    0.01338    0.03392
 27 Cu   -0.00873   -0.01378    0.00261
 28 Cu   -0.00553    0.01095   -0.06174
 29 Cu    0.00660   -0.00602    0.03033
 30 Cu    0.00490    0.00703    0.04383
 31 Cu    0.01189    0.00906   -0.03194
 32 Cu    0.00104    0.00199   -0.03345
 33 Cu    0.00265    0.00108    0.03532
 34 Cu    0.00433    0.00234    0.02706
 35 Cu    0.00083    0.00075   -0.04882
 36 Cu    0.00163   -0.00130   -0.02506
 37 Cu    0.00499    0.00061    0.02814
 38 Cu    0.00036   -0.00126    0.06661
 39 Cu   -0.00538    0.00343   -0.01100
 40 Cu   -0.01225   -0.00694   -0.02035
 41 Cu    0.01398    0.00377    0.07087
 42 Cu   -0.01362   -0.00080    0.14101
 43 Cu    0.01699   -0.00392   -0.03550
 44 Cu   -0.00336    0.02582   -0.07022
 45 Cu   -0.06346    0.00113    0.45586
 46 Cu   -0.01135   -0.00297   -0.04801
 47 Cu   -0.00480    0.01955   -0.06136
 48 Cu    0.00685   -0.02754    0.07415
 49 Cu   -0.00420    0.00457    0.05030
 50 Cu   -0.00689   -0.00543   -0.06739
 51 Cu   -0.01650    0.00429    0.03831
 52 Cu   -0.00152    0.00102    0.02671
 53 Cu    0.00098    0.00203   -0.06409
 54 Cu   -0.00156   -0.00160   -0.03301
 55 Cu   -0.00003   -0.00136    0.04950
 56 Cu    0.00634   -0.00813    0.06424
 57 Cu   -0.00468   -0.00549   -0.04276
 58 Cu    0.00700    0.12881   -0.22848
 59 Cu    0.01009    0.00454   -0.00325
 60 Cu   -0.00568    0.01691    0.06614
 61 Cu   -0.05298   -0.00582   -0.07342
 62 Cu   -0.00178    0.00259   -0.00409
 63 Cu   -0.01169   -0.00102    0.04472
 64 Cu   -0.00622   -0.00103    0.03575
 65 Cu   -0.00025    0.00086   -0.00016
 66 Cu    0.00418    0.00286   -0.01482
 67 Cu   -0.00349    0.00188    0.03715
 68 Cu    0.00050    0.00590    0.13611
 69 Cu   -0.00237    0.00652   -0.04030
 70 Cu    0.00817   -0.12521   -0.23741
 71 Cu   -0.08454   -0.00322    0.59986
 72 Cl    0.00315    0.01680   -0.18780
 73 Cl   -0.00526    0.00816    0.18863
 74 Cl    0.16084   -0.02142   -0.57135
 75 Cl   -0.02917    0.06420    0.63962

System changes: positions

[...]

Density initialized from wave functions
 |    |           Cl     |
 |    |              Cu  |
 |    |  Cl  CuCu        |
 |  CuCu   CCu   CuCu    |
 |    |  Cu    Cu    Cu  |
 |Cu  Cu    CuCu   Cu    |
 |  Cu|  CCu   CuCu  Cu  |
 |Cu  CuCu  CuCu   Cu    |
 |  Cu|  CuCuCuCuCu  Cu  |
 |Cu  | Cu    Cu         |
 |  CuCu CuCCu CuCuCuCu  |
 |Cu  |       Cu         |
 |  CuCu CCuCu CuCuCuCu  |
 |    |Cu    Cu    Cu    |
 |CuCuCuCuCuCuCu CuCu    |
 |    |       Cl         |

[...]

     iter     time        total  log10-change:
                         energy  eigst   dens
iter:   1 08:15:29 -5601.982731  -2.34
iter:   2 08:16:52 -5601.762154  -2.80  -2.37
iter:   3 08:18:13 -5602.166098c -3.01  -2.42
iter:   4 08:19:31 -5601.304291  -3.33  -2.30
iter:   5 08:20:49 -5601.131308  -3.60  -2.68
iter:   6 08:22:00 -5601.117096c -3.83  -3.05
iter:   7 08:23:16 -5601.113414c -4.27  -3.15
iter:   8 08:24:35 -5601.110802c -4.43  -3.38
iter:   9 08:26:03 -5601.107501c -4.90  -3.57
iter:  10 08:27:27 -5601.108028c -5.60  -3.77
iter:  11 08:28:48 -5601.106880c -6.03  -3.64
iter:  12 08:29:59 -5601.106511c -5.03  -3.78
iter:  13 08:31:09 -5601.106491c -6.29  -3.90
iter:  14 08:32:19 -5601.105966c -5.98  -4.01c
iter:  15 08:33:39 -5601.105911c -5.96  -4.08c
iter:  16 08:35:01 -5601.105905c -6.40  -4.25c
iter:  17 08:36:14 -5601.105990c -6.92  -4.38c
iter:  18 08:37:31 -5601.105878c -7.33  -4.26c
iter:  19 08:38:42 -5601.105869c -6.55  -4.65c
iter:  20 08:39:53 -5601.105874c -7.52c -4.84c

[...]

Density initialized from wave functions
 |    |           Cl     |
 |    |              Cu  |
 |    |  Cl  CuCu        |
 |  CuCu   CCu   CuCu    |
 |    |  Cu    Cu  CuCu  |
 |Cu  Cu    CuCu   Cu    |
 |  Cu|  CCu   CuCu  Cu  |
 |Cu  CuCu  Cu     Cu    |
 |  Cu|  CuCuCuCuCu  Cu  |
 |Cu  | Cu    Cu         |
 |  CuCu CuCCu CuCuCuCu  |
 |Cu  |       Cu         |
 |  CuCu CuCCu CuCuCuCu  |
 |    |Cu    Cu    Cu    |
 |CuCuCuCuCuCuCu CuCu    |
 |    |       Cl         |

[...]

Density initialized from wave functions
 |    |           Cl     |
 |    |        Cu    Cu  |
 |    |CuCl  Cu          |
 |  CuCu   CCu   CuCu    |
 |    |  Cu    Cu  CuCu  |
 |    Cu    CuCu   Cu    |
 |  Cu|  CCu   CuCu  Cu  |
 |Cu  CuCu  Cu     Cu    |
 |  Cu|  CuCuCuCuCu  Cu  |
 |Cu  | Cu    Cu         |
 |  CuCu CuCCu CuCuCuCu  |
 |Cu  |       Cu         |
 |  CuCu CuCCu CuCuCuCu  |
 |    |Cu    Cu    Cu    |
 |CuCuCuCuCuCuCu CuCu    |
 |    |       Cl         |

[...]

Density initialized from wave functions
 |    |           Cl     |
 |    |        Cu    Cu  |
 |    |CuCl  Cu          |
 |  CuCu   CCu   CuCu    |
 |    |CuCu    Cu  CuCu  |
 |    Cu    CuCu   Cu    |
 |  Cu|  CCu   CuCu  Cu  |
 |    CuCu  Cu     Cu    |
 |  Cu|  CuCuCuCuCu  Cu  |
 |Cu  | Cu    Cu         |
 |  CuCu CuCCu CuCuCuCu  |
 |Cu  |       Cu         |
 |  CuCu CuCCu CuCuCuCu  |
 |    |Cu    Cu    Cu    |
 |CuCuCuCuCuCuCu CuCu    |
 |    |       Cl         |

[...]

Density initialized from wave functions
 |    |           Cl     |
 |    |        Cu    Cu  |
 |    |CuCl  Cu          |
 |  CuCu   CCu   CuCu    |
 |    |CuCu    Cu  CuCu  |
 |    Cu    CuCu   Cu    |
 |  Cu|CuCCu   CuCuCuCu  |
 |    CuCu  Cu     Cu    |
 |  Cu|  CuCuCuCuCu  Cu  |
 |    | Cu               |
 |  CuCu CuCCu CuCuCuCu  |
 |Cu  |       Cu         |
 |  CuCu CuCCu CuCuCuCu  |
 |    |Cu    Cu    Cu    |
 |CuCuCuCuCuCuCu CuCu    |
 |    |       Cl         |

[...]

System changes: positions

Initializing position-dependent things.

Density initialized from wave functions
 |    |           Cl     |
 |    |        Cu    Cu  |
 |    |CuCl  Cu          |
 |  CuCu   CCu   CuCu    |
 |    |CuCu    Cu  CuCu  |
 |    Cu    CuCu   Cu    |
 |  Cu|  CCu   CuCuCuCu  |
 |    CuCu  Cu     Cu    |
 |  Cu|  CuCuCuCuCu  Cu  |
 |Cu  | Cu               |
 |  CuCu CuCCu CuCuCuCu  |
 |    |Cu          Cu    |
 |Cu  |       Cu         |
 |  CuCu CuCCu CuCuCuCu  |
 |    |Cu    Cu    Cu    |
 |  CuCuCuCuCu   CuCu    |
 |    |       Cl         |

Positions:
   0 Cu     2.929176   -0.005231    9.982295    ( 0.0000,  0.0000,  0.0000)
   1 Cu     1.592224    1.862126   11.307182    ( 0.0000,  0.0000,  0.0000)
   2 Cu     4.200658    1.833309   11.304902    ( 0.0000,  0.0000,  0.0000)
   3 Cu     0.250140   -0.002301    9.981332    ( 0.0000,  0.0000,  0.0000)
   4 Cu     0.275340   -0.000220   12.572036    ( 0.0000,  0.0000,  0.0000)
   5 Cu     4.203243    1.859371   13.924465    ( 0.0000,  0.0000,  0.0000)
   6 Cu     1.586083    1.840206   13.928472    ( 0.0000,  0.0000,  0.0000)
   7 Cu     2.891166    0.000600   12.579288    ( 0.0000,  0.0000,  0.0000)
   8 Cu     2.897611   -0.000955   15.216867    ( 0.0000,  0.0000,  0.0000)
   9 Cu     1.587860    1.849646   16.545184    ( 0.0000,  0.0000,  0.0000)
  10 Cu     4.201720    1.851450   16.546166    ( 0.0000,  0.0000,  0.0000)
  11 Cu     0.275641    0.000500   15.222495    ( 0.0000,  0.0000,  0.0000)
  12 Cu     0.278831    0.000027   17.845618    ( 0.0000,  0.0000,  0.0000)
  13 Cu     4.205624    1.849623   19.173911    ( 0.0000,  0.0000,  0.0000)
  14 Cu     1.583879    1.852312   19.168653    ( 0.0000,  0.0000,  0.0000)
  15 Cu     2.894417    0.001328   17.844956    ( 0.0000,  0.0000,  0.0000)
  16 Cu     2.894282    0.010704   20.464690    ( 0.0000,  0.0000,  0.0000)
  17 Cu     1.578713    1.851700   21.817391    ( 0.0000,  0.0000,  0.0000)
  18 Cu     4.196889    1.851915   21.809104    ( 0.0000,  0.0000,  0.0000)
  19 Cu     0.276834   -0.002314   20.465852    ( 0.0000,  0.0000,  0.0000)
  20 Cu     0.271830   -0.000109   23.107744    ( 0.0000,  0.0000,  0.0000)
  21 Cu     4.234115    1.846463   24.408503    ( 0.0000,  0.0000,  0.0000)
  22 Cu     1.551358    1.849516   24.410734    ( 0.0000,  0.0000,  0.0000)
  23 Cu     2.891694   -0.013771   23.078071    ( 0.0000,  0.0000,  0.0000)
  24 Cu     2.861939    3.700712    9.982753    ( 0.0000,  0.0000,  0.0000)
  25 Cu     1.593390    5.532661   11.316837    ( 0.0000,  0.0000,  0.0000)
  26 Cu     4.201503    5.562239   11.310001    ( 0.0000,  0.0000,  0.0000)
  27 Cu     0.277989    3.699459   10.108874    ( 0.0000,  0.0000,  0.0000)
  28 Cu     0.275449    3.699037   12.635263    ( 0.0000,  0.0000,  0.0000)
  29 Cu     4.203262    5.542140   13.925661    ( 0.0000,  0.0000,  0.0000)
  30 Cu     1.585933    5.561798   13.931201    ( 0.0000,  0.0000,  0.0000)
  31 Cu     2.900157    3.698362   12.582086    ( 0.0000,  0.0000,  0.0000)
  32 Cu     2.892751    3.702259   15.217743    ( 0.0000,  0.0000,  0.0000)
  33 Cu     1.587059    5.553195   16.550573    ( 0.0000,  0.0000,  0.0000)
  34 Cu     4.203519    5.550707   16.546726    ( 0.0000,  0.0000,  0.0000)
  35 Cu     0.278576    3.700825   15.221954    ( 0.0000,  0.0000,  0.0000)
  36 Cu     0.277871    3.701677   17.841828    ( 0.0000,  0.0000,  0.0000)
  37 Cu     4.200589    5.552853   19.173785    ( 0.0000,  0.0000,  0.0000)
  38 Cu     1.587706    5.550228   19.171689    ( 0.0000,  0.0000,  0.0000)
  39 Cu     2.896277    3.700336   17.845374    ( 0.0000,  0.0000,  0.0000)
  40 Cu     2.894365    3.691049   20.466155    ( 0.0000,  0.0000,  0.0000)
  41 Cu     1.583168    5.550980   21.761218    ( 0.0000,  0.0000,  0.0000)
  42 Cu     4.204956    5.550005   21.808764    ( 0.0000,  0.0000,  0.0000)
  43 Cu     0.277407    3.703757   20.466149    ( 0.0000,  0.0000,  0.0000)
  44 Cu     0.272169    3.700072   23.112035    ( 0.0000,  0.0000,  0.0000)
  45 Cu     4.157548    5.553550   24.402982    ( 0.0000,  0.0000,  0.0000)
  46 Cu     1.571075    5.551795   24.287173    ( 0.0000,  0.0000,  0.0000)
  47 Cu     2.891173    3.713613   23.085030    ( 0.0000,  0.0000,  0.0000)
  48 Cu     6.821010    1.848511   11.283704    ( 0.0000,  0.0000,  0.0000)
  49 Cu     5.516336   -0.004662   10.105313    ( 0.0000,  0.0000,  0.0000)
  50 Cu     5.514809   -0.000348   12.631217    ( 0.0000,  0.0000,  0.0000)
  51 Cu     6.820306    1.848961   13.928241    ( 0.0000,  0.0000,  0.0000)
  52 Cu     6.820019    1.850652   16.551643    ( 0.0000,  0.0000,  0.0000)
  53 Cu     5.510438    0.001728   15.220898    ( 0.0000,  0.0000,  0.0000)
  54 Cu     5.511104   -0.001208   17.841795    ( 0.0000,  0.0000,  0.0000)
  55 Cu     6.820033    1.851049   19.171489    ( 0.0000,  0.0000,  0.0000)
  56 Cu     6.821963    1.851435   21.758217    ( 0.0000,  0.0000,  0.0000)
  57 Cu     5.512803   -0.010048   20.461202    ( 0.0000,  0.0000,  0.0000)
  58 Cu     5.500838    0.015367   23.076200    ( 0.0000,  0.0000,  0.0000)
  59 Cu     6.817670    1.847877   24.284810    ( 0.0000,  0.0000,  0.0000)
  60 Cu     6.819880    5.547251   11.288179    ( 0.0000,  0.0000,  0.0000)
  61 Cu     5.544213    3.701830    9.981406    ( 0.0000,  0.0000,  0.0000)
  62 Cu     5.515495    3.697652   12.575117    ( 0.0000,  0.0000,  0.0000)
  63 Cu     6.820621    5.552507   13.928587    ( 0.0000,  0.0000,  0.0000)
  64 Cu     6.819202    5.551827   16.548181    ( 0.0000,  0.0000,  0.0000)
  65 Cu     5.513270    3.699881   15.224057    ( 0.0000,  0.0000,  0.0000)
  66 Cu     5.510336    3.702290   17.847647    ( 0.0000,  0.0000,  0.0000)
  67 Cu     6.822280    5.551631   19.172187    ( 0.0000,  0.0000,  0.0000)
  68 Cu     6.820750    5.549663   21.825614    ( 0.0000,  0.0000,  0.0000)
  69 Cu     5.512603    3.711463   20.463946    ( 0.0000,  0.0000,  0.0000)
  70 Cu     5.500170    3.685324   23.084038    ( 0.0000,  0.0000,  0.0000)
  71 Cu     6.838535    5.554321   24.415986    ( 0.0000,  0.0000,  0.0000)
  72 Cl     2.894722    1.803749   26.263547    ( 0.0000,  0.0000,  0.0000)
  73 Cl     4.201572    3.657782    8.129409    ( 0.0000,  0.0000,  0.0000)
  74 Cl     5.486516    5.574979   26.268557    ( 0.0000,  0.0000,  0.0000)
  75 Cl     1.591500   -0.114386    8.127086    ( 0.0000,  0.0000,  0.0000)

Unit cell:
           periodic     x           y           z      points  spacing
  1. axis:    yes    7.851007    0.000000    0.000000    45     0.1745
  2. axis:    yes    0.000000    7.402000    0.000000    42     0.1762
  3. axis:    yes    0.000000    0.000000   34.393512   196     0.1755

  Lengths:   7.851007   7.402000  34.393512
  Angles:   90.000000  90.000000  90.000000

Effective grid spacing dv^(1/3) = 0.1754

     iter     time        total  log10-change:
                         energy  eigst   dens
iter:   1 09:56:47 -5601.189002  -4.09
iter:   2 09:57:58 -5601.329318  -3.92  -3.07
iter:   3 09:59:09 -5601.159913c -4.34  -2.71
iter:   4 10:00:31 -5601.158792c -5.57  -3.68
iter:   5 10:02:01 -5601.158639c -5.56  -3.81
iter:   6 10:03:19 -5601.158482c -6.56  -4.11c
iter:   7 10:04:44 -5601.158386c -6.50  -4.17c
iter:   8 10:06:07 -5601.158401c -7.20  -4.38c
iter:   9 10:07:46 -5601.158365c -6.93  -4.36c
iter:  10 10:09:11 -5601.158344c -7.53c -4.50c

Converged after 10 iterations.

Dipole moment: (-69.949223, 9.254259, -0.002351) |e|*Ang

Energy contributions relative to reference atoms: (reference = -3291764.330143)

Kinetic:       +529.061847
Potential:     -589.469317
External:        +0.000000
XC:            -5539.489831
Entropy (-ST):   -0.721746
Local:           -0.900169
Free energy:   -5601.519216
Extrapolated:  -5601.158344

Showing only first 2 kpts
 Kpt  Band  Eigenvalues  Occupancy
  0   408      0.37324    1.45550
  0   409      0.40810    1.30707
  0   410      0.59359    0.45580
  0   411      0.63929    0.31491

  1   408      0.09809    1.95335
  1   409      0.15275    1.92077
  1   410      0.31354    1.65849
  1   411      0.37766    1.43780

Fermi level: 0.47157

No gap

Forces in eV/Ang:
  0 Cu   -0.00045    0.00017    0.00509
  1 Cu   -0.00131    0.00018    0.00224
  2 Cu   -0.00611   -0.00575    0.00511
  3 Cu    0.00353    0.00043    0.00667
  4 Cu    0.00109   -0.00026    0.00560
  5 Cu    0.00053    0.00186    0.00358
  6 Cu    0.00191    0.00226   -0.00093
  7 Cu    0.00086   -0.00041    0.00157
  8 Cu   -0.00087    0.00010   -0.00037
  9 Cu   -0.00093   -0.00025   -0.00052
 10 Cu    0.00252    0.00028    0.00041
 11 Cu    0.00122   -0.00016    0.00334
 12 Cu   -0.00083    0.00093   -0.00419
 13 Cu    0.00209    0.00085    0.00330
 14 Cu    0.00058   -0.00040   -0.00085
 15 Cu    0.00094    0.00082   -0.00407
 16 Cu   -0.00034   -0.00142   -0.00177
 17 Cu    0.00520    0.00006    0.00144
 18 Cu   -0.00246    0.00005    0.01266
 19 Cu    0.00078    0.00521   -0.00620
 20 Cu   -0.00004   -0.00366   -0.00985
 21 Cu   -0.02000    0.00152    0.00849
 22 Cu    0.00604    0.00185    0.00840
 23 Cu    0.00603   -0.00397    0.00078
 24 Cu    0.00437   -0.00047   -0.00007
 25 Cu   -0.00157   -0.00141    0.00034
 26 Cu   -0.00472    0.00473    0.00168
 27 Cu   -0.00145   -0.00197   -0.00276
 28 Cu    0.00212   -0.00032   -0.01095
 29 Cu    0.00049   -0.00250    0.00458
 30 Cu    0.00148   -0.00297   -0.00540
 31 Cu   -0.00160    0.00030   -0.01223
 32 Cu   -0.00150   -0.00150   -0.00617
 33 Cu   -0.00011   -0.00041   -0.00463
 34 Cu   -0.00046   -0.00105    0.00017
 35 Cu    0.00116   -0.00117   -0.00441
 36 Cu    0.00183   -0.00103   -0.00441
 37 Cu   -0.00002   -0.00093    0.00204
 38 Cu    0.00055    0.00043    0.00080
 39 Cu   -0.00219   -0.00095   -0.00435
 40 Cu   -0.00034    0.00148   -0.00191
 41 Cu   -0.00916   -0.00069    0.00251
 42 Cu   -0.00128   -0.00032    0.00348
 43 Cu    0.00086   -0.00559   -0.00641
 44 Cu   -0.00048    0.00359   -0.01279
 45 Cu    0.01945   -0.00127    0.01179
 46 Cu    0.01195   -0.00185    0.00178
 47 Cu    0.00637    0.00418   -0.00166
 48 Cu    0.00551   -0.00655    0.00464
 49 Cu   -0.00246    0.00104   -0.00446
 50 Cu    0.00233   -0.00015   -0.00266
 51 Cu   -0.00087    0.00276    0.00568
 52 Cu   -0.00124    0.00027    0.00173
 53 Cu    0.00065   -0.00114   -0.00259
 54 Cu    0.00037    0.00018    0.00073
 55 Cu   -0.00215    0.00083    0.00313
 56 Cu   -0.00660    0.00061    0.01122
 57 Cu   -0.00444    0.00302    0.00515
 58 Cu    0.00618   -0.00070    0.00025
 59 Cu   -0.00252    0.00140    0.00071
 60 Cu    0.00404    0.00583    0.00087
 61 Cu    0.00221   -0.00175   -0.00136
 62 Cu   -0.00158    0.00023   -0.00005
 63 Cu   -0.00052   -0.00333    0.00573
 64 Cu    0.00098   -0.00101    0.00063
 65 Cu    0.00042   -0.00017   -0.00164
 66 Cu    0.00091   -0.00036   -0.00269
 67 Cu   -0.00113   -0.00098   -0.00786
 68 Cu    0.00024    0.00003   -0.01599
 69 Cu   -0.00474   -0.00331    0.00191
 70 Cu    0.00643    0.00087   -0.00179
 71 Cu   -0.01926   -0.00263    0.00692
 72 Cl    0.00736    0.00801   -0.01161
 73 Cl   -0.00731    0.00291   -0.00583
 74 Cl    0.00971   -0.00892   -0.01883
 75 Cl   -0.00102    0.01901   -0.00465