User:   thorkong@node029.cluster
Date:   Sun Oct  9 01:38:38 2022
Arch:   x86_64
Pid:    25646
Python: 3.10.5
gpaw:   /groups/kemi/thorkong/miniconda3/envs/gpaw22/lib/python3.10/site-packages/gpaw
_gpaw:  /groups/kemi/thorkong/miniconda3/envs/gpaw22/lib/python3.10/site-packages/
        _gpaw.cpython-310-x86_64-linux-gnu.so
ase:    /groups/kemi/thorkong/miniconda3/envs/gpaw22/lib/python3.10/site-packages/ase (version 3.22.1)
numpy:  /groups/kemi/thorkong/miniconda3/envs/gpaw22/lib/python3.10/site-packages/numpy (version 1.23.0)
scipy:  /groups/kemi/thorkong/miniconda3/envs/gpaw22/lib/python3.10/site-packages/scipy (version 1.8.1)
units:  Angstrom and eV
cores: 32
OpenMP: True
OMP_NUM_THREADS: 1

Input parameters:
  basis: dzp
  kpts: [4 4 1]
  mode: {ecut: 600.0,
         name: pw}
  xc: BEEF-vdW

System changes: positions, numbers, cell, pbc, initial_charges, initial_magmoms

Initialize ...

Cu-setup:
  name: Copper
  id: f1c4d45d90492f1bbfdcb091e8418fdf
  Z: 29.0
  valence: 11
  core: 18
  charge: 0.0
  file: /groups/kemi/thorkong/miniconda3/envs/gpaw22/share/gpaw/Cu.PBE.gz
  compensation charges: gauss, rc=0.33, lmax=2
  cutoffs: 2.06(filt), 2.43(core),
  valence states:
                energy  radius
    4s(1.00)    -4.609   1.164
    4p(0.00)    -0.698   1.164
    3d(10.00)    -5.039   1.058
    *s          22.603   1.164
    *p          26.513   1.164
    *d          22.172   1.058

  LCAO basis set for Cu:
    Name: dzp
    File: /groups/kemi/thorkong/miniconda3/envs/gpaw22/share/gpaw/Cu.dzp.basis.gz
    Number of radial functions: 5
    Number of spherical harmonics: 15
      l=0, rc=8.9688 Bohr: 4s-sz confined orbital
      l=2, rc=5.1719 Bohr: 3d-sz confined orbital
      l=0, rc=5.3281 Bohr: 4s-dz split-valence wave
      l=2, rc=3.1406 Bohr: 3d-dz split-valence wave
      l=1, rc=8.9688 Bohr: p-type Gaussian polarization

Cl-setup:
  name: Chlorine
  id: 726897f06f34e53cf8e33b5885a02604
  Z: 17.0
  valence: 7
  core: 10
  charge: 0.0
  file: /groups/kemi/thorkong/miniconda3/envs/gpaw22/share/gpaw/Cl.PBE.gz
  compensation charges: gauss, rc=0.25, lmax=2
  cutoffs: 1.40(filt), 1.49(core),
  valence states:
                energy  radius
    3s(2.00)   -20.689   0.794
    3p(5.00)    -8.594   0.794
    *s           6.523   0.794
    *p          18.617   0.794
    *d           0.000   0.794

  LCAO basis set for Cl:
    Name: dzp
    File: /groups/kemi/thorkong/miniconda3/envs/gpaw22/share/gpaw/Cl.dzp.basis.gz
    Number of radial functions: 5
    Number of spherical harmonics: 13
      l=0, rc=5.1719 Bohr: 3s-sz confined orbital
      l=1, rc=6.2656 Bohr: 3p-sz confined orbital
      l=0, rc=2.8281 Bohr: 3s-dz split-valence wave
      l=1, rc=3.5156 Bohr: 3p-dz split-valence wave
      l=2, rc=6.2656 Bohr: d-type Gaussian polarization

Reference energy: -3392203.925309

Spin-paired calculation

Convergence criteria:
 Maximum [total energy] change in last 3 cyles: 0.0005 eV / electron
 Maximum integral of absolute [dens]ity change: 0.0001 electrons / valence electron
 Maximum integral of absolute [eigenst]ate change: 4e-08 eV^2 / valence electron
 Maximum number of scf [iter]ations: 333
 (Square brackets indicate name in SCF output, whereas a 'c' in
 the SCF output indicates the quantity has converged.)

Symmetries present (total): 2

  ( 1  0  0)  ( 1  0  0)
  ( 0  1  0)  ( 0 -1  0)
  ( 0  0  1)  ( 0  0  1)

16 k-points: 4 x 4 x 1 Monkhorst-Pack grid
4 k-points in the irreducible part of the Brillouin zone
       k-points in crystal coordinates                weights
   0:     0.12500000    0.12500000    0.00000000          4/16
   1:     0.12500000    0.37500000    0.00000000          4/16
   2:     0.37500000    0.12500000    0.00000000          4/16
   3:     0.37500000    0.37500000    0.00000000          4/16

Wave functions: Plane wave expansion
  Cutoff energy: 600.000 eV
  Number of coefficients (min, max): 66642, 66743
  Pulay-stress correction: 0.000000 eV/Ang^3 (de/decut=0.000000)
  Using FFTW library
  ScaLapack parameters: grid=4x2, blocksize=64
  Wavefunction extrapolation:
    Improved wavefunction reuse through dual PAW basis

Occupation numbers: Fermi-Dirac: width=0.1000 eV

Eigensolver
   Davidson(niter=2)

Densities:
  Coarse grid: 45*42*196 grid
  Fine grid: 90*84*392 grid
  Total Charge: 0.000000

Density mixing:
  Method: separate
  Backend: pulay
  Linear mixing parameter: 0.05
  Mixing with 5 old densities
  Damping of long wave oscillations: 50

Hamiltonian:
  XC and Coulomb potentials evaluated on a 90*84*392 grid
  Using the BEEF-vdW Exchange-Correlation functional
  External potential:
    NoExternalPotential

XC parameters: BEEF-vdW with 2 nearest neighbor stencil

Total number of cores used: 32
Parallelization over k-points: 4
Domain decomposition: 1 x 1 x 8
                      2 x 2 x 8 (xc only)

Number of atoms: 84
Number of atomic orbitals: 1236
Number of bands in calculation: 530
Number of valence electrons: 876
Bands to converge: occupied

... initialized

Initializing position-dependent things.

Density initialized from atomic densities
Creating initial wave functions:
  530 bands from LCAO basis set

 |  Cl|    Cl    Cl      |
 |    |  Cu    Cu    Cu  |
 |Cl  | Cl    Cl         |
 |  CuCu   CCu   CuCu    |
 |    |  Cu    Cu    Cu  |
 |CuCuCuCu CCuCu CuCu    |
 |    |  Cu    Cu    Cu  |
 |Cu  CuCu  CuCu   Cu    |
 |  Cu|  CuCu  CuCu  Cu  |
 |Cu  | Cu    Cu         |
 |  CuCu CuCCu CuCuCuCu  |
 |Cu  | Cu    Cu         |
 |  CuCu CuCCu CuCuCuCu  |
 |CuCuCuCu CCuCu CuCu    |
 |    |  Cl    Cl    Cl  |
 |Cu  | Cu    Cu         |
 |    Cl    Cl     Cl    |

Positions:
   0 Cu     2.895264    0.000000   10.005700    ( 0.0000,  0.0000,  0.0000)
   1 Cu     1.586465    1.850499   11.272442    ( 0.0000,  0.0000,  0.0000)
   2 Cu     4.203226    1.850501   11.271951    ( 0.0000,  0.0000,  0.0000)
   3 Cu     0.277934    0.000000   10.006909    ( 0.0000,  0.0000,  0.0000)
   4 Cu     0.277930    0.000000   12.600929    ( 0.0000,  0.0000,  0.0000)
   5 Cu     4.203315    1.850502   13.912142    ( 0.0000,  0.0000,  0.0000)
   6 Cu     1.586380    1.850499   13.912238    ( 0.0000,  0.0000,  0.0000)
   7 Cu     2.894994    0.000000   12.600393    ( 0.0000,  0.0000,  0.0000)
   8 Cu     2.894764    0.000000   15.223741    ( 0.0000,  0.0000,  0.0000)
   9 Cu     1.586127    1.850495   16.541709    ( 0.0000,  0.0000,  0.0000)
  10 Cu     4.203134    1.850506   16.541732    ( 0.0000,  0.0000,  0.0000)
  11 Cu     0.277763    0.000000   15.223840    ( 0.0000,  0.0000,  0.0000)
  12 Cu     0.277664    0.000000   17.851528    ( 0.0000,  0.0000,  0.0000)
  13 Cu     4.203228    1.850503   19.169530    ( 0.0000,  0.0000,  0.0000)
  14 Cu     1.586201    1.850497   19.169503    ( 0.0000,  0.0000,  0.0000)
  15 Cu     2.894656    0.000000   17.851533    ( 0.0000,  0.0000,  0.0000)
  16 Cu     2.894834    0.000000   20.481175    ( 0.0000,  0.0000,  0.0000)
  17 Cu     1.586259    1.850536   21.792793    ( 0.0000,  0.0000,  0.0000)
  18 Cu     4.203353    1.850456   21.792811    ( 0.0000,  0.0000,  0.0000)
  19 Cu     0.277824    0.000000   20.481251    ( 0.0000,  0.0000,  0.0000)
  20 Cu     0.277677    0.000000   23.121168    ( 0.0000,  0.0000,  0.0000)
  21 Cu     4.203206    1.850151   24.386879    ( 0.0000,  0.0000,  0.0000)
  22 Cu     1.585804    1.850789   24.386851    ( 0.0000,  0.0000,  0.0000)
  23 Cu     2.894490    0.000000   23.120889    ( 0.0000,  0.0000,  0.0000)
  24 Cu     2.895269    3.701000   10.005697    ( 0.0000,  0.0000,  0.0000)
  25 Cu     1.586465    5.551501   11.272442    ( 0.0000,  0.0000,  0.0000)
  26 Cu     4.203226    5.551499   11.271951    ( 0.0000,  0.0000,  0.0000)
  27 Cu     0.277933    3.701000   10.006913    ( 0.0000,  0.0000,  0.0000)
  28 Cu     0.277928    3.701000   12.600926    ( 0.0000,  0.0000,  0.0000)
  29 Cu     4.203315    5.551498   13.912142    ( 0.0000,  0.0000,  0.0000)
  30 Cu     1.586380    5.551501   13.912238    ( 0.0000,  0.0000,  0.0000)
  31 Cu     2.895001    3.701000   12.600393    ( 0.0000,  0.0000,  0.0000)
  32 Cu     2.894769    3.701000   15.223741    ( 0.0000,  0.0000,  0.0000)
  33 Cu     1.586127    5.551505   16.541709    ( 0.0000,  0.0000,  0.0000)
  34 Cu     4.203134    5.551494   16.541732    ( 0.0000,  0.0000,  0.0000)
  35 Cu     0.277761    3.701000   15.223830    ( 0.0000,  0.0000,  0.0000)
  36 Cu     0.277663    3.701000   17.851505    ( 0.0000,  0.0000,  0.0000)
  37 Cu     4.203228    5.551497   19.169530    ( 0.0000,  0.0000,  0.0000)
  38 Cu     1.586201    5.551503   19.169503    ( 0.0000,  0.0000,  0.0000)
  39 Cu     2.894658    3.701000   17.851537    ( 0.0000,  0.0000,  0.0000)
  40 Cu     2.894849    3.701000   20.481184    ( 0.0000,  0.0000,  0.0000)
  41 Cu     1.586259    5.551464   21.792793    ( 0.0000,  0.0000,  0.0000)
  42 Cu     4.203353    5.551544   21.792811    ( 0.0000,  0.0000,  0.0000)
  43 Cu     0.277819    3.701000   20.481192    ( 0.0000,  0.0000,  0.0000)
  44 Cu     0.277543    3.701000   23.121020    ( 0.0000,  0.0000,  0.0000)
  45 Cu     4.203206    5.551849   24.386879    ( 0.0000,  0.0000,  0.0000)
  46 Cu     1.585804    5.551211   24.386851    ( 0.0000,  0.0000,  0.0000)
  47 Cu     2.894858    3.701000   23.120910    ( 0.0000,  0.0000,  0.0000)
  48 Cu     6.820138    1.850500   11.272624    ( 0.0000,  0.0000,  0.0000)
  49 Cu     5.511073    0.000000   10.006033    ( 0.0000,  0.0000,  0.0000)
  50 Cu     5.511759    0.000000   12.600527    ( 0.0000,  0.0000,  0.0000)
  51 Cu     6.820288    1.850500   13.912274    ( 0.0000,  0.0000,  0.0000)
  52 Cu     6.820145    1.850499   16.541699    ( 0.0000,  0.0000,  0.0000)
  53 Cu     5.511744    0.000000   15.223754    ( 0.0000,  0.0000,  0.0000)
  54 Cu     5.511676    0.000000   17.851515    ( 0.0000,  0.0000,  0.0000)
  55 Cu     6.820234    1.850500   19.169528    ( 0.0000,  0.0000,  0.0000)
  56 Cu     6.820312    1.850507   21.792956    ( 0.0000,  0.0000,  0.0000)
  57 Cu     5.511861    0.000000   20.481197    ( 0.0000,  0.0000,  0.0000)
  58 Cu     5.511847    0.000000   23.121040    ( 0.0000,  0.0000,  0.0000)
  59 Cu     6.819986    1.850562   24.387207    ( 0.0000,  0.0000,  0.0000)
[...]
  69 Cu     5.511851    3.701000   20.481247    ( 0.0000,  0.0000,  0.0000)
  70 Cu     5.511615    3.701000   23.121167    ( 0.0000,  0.0000,  0.0000)
  71 Cu     6.819986    5.551438   24.387207    ( 0.0000,  0.0000,  0.0000)
  72 Cl     2.894415    3.701000   26.350785    ( 0.0000,  0.0000,  0.0000)
  73 Cl     0.276795    3.701000   26.355497    ( 0.0000,  0.0000,  0.0000)
  74 Cl     5.510563    3.701000   26.352218    ( 0.0000,  0.0000,  0.0000)
  75 Cl     0.277216    0.000000   26.351681    ( 0.0000,  0.0000,  0.0000)
  76 Cl     2.893338    0.000000   26.351467    ( 0.0000,  0.0000,  0.0000)
  77 Cl     5.511250    0.000000   26.355342    ( 0.0000,  0.0000,  0.0000)
  78 Cl     4.202965    1.850482    8.034951    ( 0.0000,  0.0000,  0.0000)
  79 Cl     6.820187    1.850506    8.044002    ( 0.0000,  0.0000,  0.0000)
  80 Cl     1.585707    1.850510    8.041550    ( 0.0000,  0.0000,  0.0000)
  81 Cl     1.585707    5.551490    8.041550    ( 0.0000,  0.0000,  0.0000)
[...]
 36 Cu    0.00020    0.00000   -0.04553
 37 Cu    0.00016    0.00002    0.06080
 38 Cu    0.00023   -0.00001    0.06082
 39 Cu    0.00027    0.00000   -0.04588
 40 Cu    0.00005    0.00000   -0.06772
 41 Cu    0.00019    0.00004    0.17682
 42 Cu   -0.00021   -0.00005    0.17688
 43 Cu   -0.00004    0.00000   -0.06790
 44 Cu    0.00057    0.00000   -0.15327
 45 Cu   -0.00049    0.00000    0.45554
 46 Cu    0.00117   -0.00001    0.45551
 47 Cu   -0.00086    0.00000   -0.15291
 48 Cu    0.00040    0.00000    0.15251
 49 Cu    0.00286    0.00000   -0.45468
 50 Cu    0.00053    0.00000   -0.17801
 51 Cu   -0.00015    0.00001    0.06659
 52 Cu    0.00009    0.00001    0.04611
 53 Cu    0.00002    0.00000   -0.06123
 54 Cu    0.00023    0.00000   -0.04578
 55 Cu    0.00004    0.00000    0.06092
 56 Cu   -0.00007   -0.00001    0.17664
 57 Cu    0.00014    0.00000   -0.06796
 58 Cu   -0.00058    0.00000   -0.15332
 59 Cu    0.00029   -0.00001    0.45548
[...]
 69 Cu    0.00015    0.00000   -0.06767
 70 Cu    0.00063    0.00000   -0.15331
 71 Cu    0.00029    0.00001    0.45548
 72 Cl   -0.00588    0.00000   -0.47164
 73 Cl   -0.00078    0.00000   -0.47387
 74 Cl    0.00658    0.00000   -0.47181
 75 Cl   -0.00548    0.00000   -0.47150
 76 Cl    0.00702    0.00000   -0.47201
 77 Cl   -0.00161    0.00000   -0.47380
 78 Cl   -0.00247    0.00004    0.47455
 79 Cl   -0.00793   -0.00001    0.47138
 80 Cl    0.01052   -0.00003    0.47207
 81 Cl    0.01052    0.00003    0.47207
 82 Cl   -0.00247   -0.00004    0.47455
 83 Cl   -0.00793    0.00001    0.47138

System changes: positions

[...]

Density initialized from wave functions
 |  Cl|    Cl    Cl      |
 |    |  Cu    Cu    Cu  |
 |Cl  | Cl    Cl         |
 |  CuCu   CCu   CuCu    |
 |    |  Cu    Cu    Cu  |
 |CuCuCuCu CCuCu CuCu    |
 |    |  Cu    Cu    Cu  |
 |Cu  CuCu  CuCu   Cu    |
 |  Cu|  CuCu  CuCu  Cu  |
 |Cu  | Cu    Cu         |
 |  CuCu CuCCu CuCuCuCu  |
 |Cu  | Cu    Cu         |
 |  CuCu CuCCu CuCuCuCu  |
 |CuCuCuCu CCuCu CuCu    |
 |    |  Cl    Cl    Cl  |
 |Cu  | Cu    Cu         |
 |    Cl    Cl     Cl    |

[...]

Density initialized from wave functions
 |  Cl|  CCl   CuCl  Cu  |
 |Cl  | Cl    Cl         |
 |  CuCu   CCu   CuCu    |
 |    |  Cu    Cu    Cu  |
 |Cu  CuCu  CuCu   Cu    |
 |  Cu|  CuCu  CuCu  Cu  |
 |Cu  CuCu  CuCu   Cu    |
 |  Cu|  CuCu  CuCu  Cu  |
 |Cu  | Cu    Cu         |
 |  CuCu CuCCu CuCuCuCu  |
 |Cu  | Cu    Cu         |
 |  CuCu CuCCu CuCuCuCu  |
 |Cu  CuCu  CuCu   Cu    |
 |  Cu|  ClCu  ClCu  Cl  |
 |Cu  | Cu    Cu         |
 |    Cl    Cl     Cl    |

[...]

     iter     time        total  log10-change:
                         energy  eigst   dens
iter:   1 02:55:11 -5926.554123  -1.07
iter:   2 02:55:56 -5985.616669  -0.46  -1.34
iter:   3 02:56:41 -5931.616188  -0.49  -1.24
iter:   4 02:57:39 -5962.455292  -1.36  -1.45
iter:   5 02:58:40 -5894.205495  -1.72  -1.31
iter:   6 02:59:51 -5891.740238  -2.36  -1.89
iter:   7 03:00:41 -5897.781072  -2.60  -1.94
iter:   8 03:01:24 -5893.253428  -2.80  -1.80
iter:   9 03:02:13 -5891.077365  -2.15  -1.87
iter:  10 03:03:00 -5887.095755  -2.66  -1.94
iter:  11 03:03:42 -5886.786313  -3.21  -2.22
iter:  12 03:04:29 -5886.688451c -3.60  -2.23
iter:  13 03:05:14 -5886.489565c -3.73  -2.22
iter:  14 03:06:04 -5886.201287  -2.70  -2.29
iter:  15 03:06:48 -5886.089763c -3.88  -2.57
iter:  16 03:07:40 -5886.036551c -3.88  -2.69
iter:  17 03:08:24 -5886.074599c -3.67  -2.79
iter:  18 03:09:09 -5886.020643c -4.39  -2.85
iter:  19 03:09:54 -5886.010954c -4.40  -3.03
iter:  20 03:10:43 -5886.005891c -4.53  -3.16
iter:  21 03:11:31 -5886.010388c -4.82  -3.34
iter:  22 03:12:18 -5886.008602c -5.09  -3.28
iter:  23 03:13:03 -5886.007380c -5.40  -3.50
iter:  24 03:13:48 -5886.004726c -5.21  -3.52
iter:  25 03:14:34 -5886.005785c -5.24  -3.71
iter:  26 03:15:29 -5886.004609c -5.67  -3.71
iter:  27 03:16:18 -5886.004533c -6.34  -3.97
iter:  28 03:17:15 -5886.004520c -6.51  -4.02c
iter:  29 03:17:58 -5886.004495c -6.35  -4.12c
iter:  30 03:18:50 -5886.004496c -6.55  -4.17c
iter:  31 03:19:42 -5886.004463c -6.83  -4.34c
iter:  32 03:20:30 -5886.004425c -7.08  -4.50c
iter:  33 03:21:17 -5886.004443c -7.00  -4.51c
iter:  34 03:22:04 -5886.004419c -7.83c -4.70c

[...]

Density initialized from wave functions
 |  Cl|  CuCl  CuCl  Cu  |
 |Cl  | Cl    Cl         |
 |  CuCu   CCu   CuCu    |
 |    |  Cu    Cu    Cu  |
 |Cu  CuCu  CuCu   Cu    |
 |  Cu|  CuCu  CuCu  Cu  |
 |Cu  CuCu  CuCu   Cu    |
 |  Cu|  CuCu  CuCu  Cu  |
 |Cu  | Cu    Cu         |
 |  CuCu CuCCu CuCuCuCu  |
 |Cu  | Cu    Cu         |
 |  CuCu CuCCu CuCuCuCu  |
 |CuCuCuCu CCuCu CuCu    |
 |    |  Cl    Cl    Cl  |
 |Cu  | Cu    Cu         |
 |    Cl    Cl     Cl    |

[...]

Density initialized from wave functions
 |  Cl|  CuCl  CuCl  Cu  |
 |Cl  | Cl    Cl         |
 |  CuCu   CCu   CuCu    |
 |    |  Cu    Cu    Cu  |
 |CuCuCuCu CCuCu CuCu    |
 |    |  Cu    Cu    Cu  |
 |Cu  CuCu  CuCu   Cu    |
 |  Cu|  CuCu  CuCu  Cu  |
 |Cu  | Cu    Cu         |
 |  CuCu CuCCu CuCuCuCu  |
 |Cu  | Cu    Cu         |
 |  CuCu CuCCu CuCuCuCu  |
 |CuCuCuCu CCuCu CuCu    |
 |    |  Cl    Cl    Cl  |
 |Cu  | Cu    Cu         |
 |    Cl    Cl     Cl    |

[...]

Density initialized from wave functions
 |  Cl|  CCl   CuCl  Cu  |
 |Cl  | Cl    Cl         |
 |  CuCu   CCu   CuCu    |
 |    |  Cu    Cu    Cu  |
 |CuCuCuCu CCuCu CuCu    |
 |    |  Cu    Cu    Cu  |
 |Cu  CuCu  CuCu   Cu    |
 |  Cu|  CuCu  CuCu  Cu  |
 |Cu  | Cu    Cu         |
 |  CuCu CuCCu CuCuCuCu  |
 |Cu  | Cu    Cu         |
 |  CuCu   CCu   CuCu    |
 |    |  Cu    Cu    Cu  |
 |CuCuCuCu CCuCu CuCu    |
 |    |  Cl    Cl    Cl  |
 |Cu  | Cu    Cu         |
 |    Cl    Cl     Cl    |

[...]

System changes: positions

Initializing position-dependent things.

Density initialized from wave functions
 |  Cl|  CuCl  CuCl  Cu  |
 |Cl  | Cl    Cl         |
 |  CuCu   CCu   CuCu    |
 |    |  Cu    Cu    Cu  |
 |CuCuCuCu CCuCu CuCu    |
 |    |  Cu    Cu    Cu  |
 |Cu  CuCu  CuCu   Cu    |
 |  Cu|  CuCu  CuCu  Cu  |
 |Cu  | Cu    Cu         |
 |  CuCu CuCCu CuCuCuCu  |
 |Cu  | Cu    Cu         |
 |  CuCu CuCCu CuCuCuCu  |
 |CuCuCuCu CCuCu CuCu    |
 |    |  Cl    Cl    Cl  |
 |Cu  | Cu    Cu         |
 |    Cl    Cl     Cl    |

Positions:
   0 Cu     2.895116    0.000000    9.941006    ( 0.0000,  0.0000,  0.0000)
   1 Cu     1.586581    1.850504   11.313532    ( 0.0000,  0.0000,  0.0000)
   2 Cu     4.203584    1.850495   11.313285    ( 0.0000,  0.0000,  0.0000)
   3 Cu     0.277878    0.000000    9.941560    ( 0.0000,  0.0000,  0.0000)
   4 Cu     0.278309    0.000000   12.564981    ( 0.0000,  0.0000,  0.0000)
   5 Cu     4.203844    1.850500   13.918428    ( 0.0000,  0.0000,  0.0000)
   6 Cu     1.586868    1.850500   13.918490    ( 0.0000,  0.0000,  0.0000)
   7 Cu     2.895340    0.000000   12.564581    ( 0.0000,  0.0000,  0.0000)
   8 Cu     2.895414    0.000000   15.207076    ( 0.0000,  0.0000,  0.0000)
   9 Cu     1.586804    1.850500   16.545569    ( 0.0000,  0.0000,  0.0000)
  10 Cu     4.203797    1.850500   16.545562    ( 0.0000,  0.0000,  0.0000)
  11 Cu     0.278407    0.000000   15.207284    ( 0.0000,  0.0000,  0.0000)
  12 Cu     0.278318    0.000000   17.846633    ( 0.0000,  0.0000,  0.0000)
  13 Cu     4.203832    1.850506   19.185213    ( 0.0000,  0.0000,  0.0000)
  14 Cu     1.586841    1.850496   19.185223    ( 0.0000,  0.0000,  0.0000)
  15 Cu     2.895319    0.000000   17.846479    ( 0.0000,  0.0000,  0.0000)
  16 Cu     2.895313    0.000000   20.474233    ( 0.0000,  0.0000,  0.0000)
  17 Cu     1.586640    1.850496   21.828600    ( 0.0000,  0.0000,  0.0000)
  18 Cu     4.203667    1.850504   21.828611    ( 0.0000,  0.0000,  0.0000)
  19 Cu     0.278307    0.000000   20.474405    ( 0.0000,  0.0000,  0.0000)
  20 Cu     0.278002    0.000000   23.080272    ( 0.0000,  0.0000,  0.0000)
  21 Cu     4.203294    1.850378   24.452841    ( 0.0000,  0.0000,  0.0000)
  22 Cu     1.586137    1.850597   24.452801    ( 0.0000,  0.0000,  0.0000)
  23 Cu     2.894967    0.000000   23.080038    ( 0.0000,  0.0000,  0.0000)
  24 Cu     2.895116    3.701000    9.941007    ( 0.0000,  0.0000,  0.0000)
  25 Cu     1.586581    5.551496   11.313532    ( 0.0000,  0.0000,  0.0000)
  26 Cu     4.203584    5.551505   11.313285    ( 0.0000,  0.0000,  0.0000)
  27 Cu     0.277878    3.701000    9.941555    ( 0.0000,  0.0000,  0.0000)
  28 Cu     0.278308    3.701000   12.564978    ( 0.0000,  0.0000,  0.0000)
  29 Cu     4.203844    5.551500   13.918428    ( 0.0000,  0.0000,  0.0000)
  30 Cu     1.586868    5.551500   13.918490    ( 0.0000,  0.0000,  0.0000)
  31 Cu     2.895343    3.701000   12.564581    ( 0.0000,  0.0000,  0.0000)
  32 Cu     2.895416    3.701000   15.207077    ( 0.0000,  0.0000,  0.0000)
  33 Cu     1.586804    5.551500   16.545569    ( 0.0000,  0.0000,  0.0000)
  34 Cu     4.203797    5.551500   16.545562    ( 0.0000,  0.0000,  0.0000)
  35 Cu     0.278406    3.701000   15.207276    ( 0.0000,  0.0000,  0.0000)
  36 Cu     0.278315    3.701000   17.846588    ( 0.0000,  0.0000,  0.0000)
  37 Cu     4.203832    5.551494   19.185213    ( 0.0000,  0.0000,  0.0000)
  38 Cu     1.586841    5.551504   19.185223    ( 0.0000,  0.0000,  0.0000)
  39 Cu     2.895325    3.701000   17.846487    ( 0.0000,  0.0000,  0.0000)
  40 Cu     2.895328    3.701000   20.474252    ( 0.0000,  0.0000,  0.0000)
  41 Cu     1.586640    5.551504   21.828600    ( 0.0000,  0.0000,  0.0000)
  42 Cu     4.203667    5.551496   21.828611    ( 0.0000,  0.0000,  0.0000)
  43 Cu     0.278302    3.701000   20.474311    ( 0.0000,  0.0000,  0.0000)
  44 Cu     0.277978    3.701000   23.080146    ( 0.0000,  0.0000,  0.0000)
  45 Cu     4.203294    5.551622   24.452841    ( 0.0000,  0.0000,  0.0000)
  46 Cu     1.586137    5.551403   24.452801    ( 0.0000,  0.0000,  0.0000)
  47 Cu     2.895028    3.701000   23.080064    ( 0.0000,  0.0000,  0.0000)
  48 Cu     6.820582    1.850500   11.313648    ( 0.0000,  0.0000,  0.0000)
  49 Cu     5.511359    0.000000    9.941151    ( 0.0000,  0.0000,  0.0000)
  50 Cu     5.512241    0.000000   12.564688    ( 0.0000,  0.0000,  0.0000)
  51 Cu     6.820830    1.850500   13.918541    ( 0.0000,  0.0000,  0.0000)
  52 Cu     6.820795    1.850500   16.545609    ( 0.0000,  0.0000,  0.0000)
  53 Cu     5.512411    0.000000   15.207133    ( 0.0000,  0.0000,  0.0000)
  54 Cu     5.512324    0.000000   17.846502    ( 0.0000,  0.0000,  0.0000)
  55 Cu     6.820829    1.850499   19.185285    ( 0.0000,  0.0000,  0.0000)
  56 Cu     6.820648    1.850499   21.828711    ( 0.0000,  0.0000,  0.0000)
  57 Cu     5.512310    0.000000   20.474253    ( 0.0000,  0.0000,  0.0000)
  58 Cu     5.512003    0.000000   23.080115    ( 0.0000,  0.0000,  0.0000)
  59 Cu     6.820123    1.850525   24.452944    ( 0.0000,  0.0000,  0.0000)
[...]
  69 Cu     5.512301    3.701000   20.474329    ( 0.0000,  0.0000,  0.0000)
  70 Cu     5.511960    3.701000   23.080215    ( 0.0000,  0.0000,  0.0000)
  71 Cu     6.820123    5.551475   24.452944    ( 0.0000,  0.0000,  0.0000)
  72 Cl     2.895047    3.701000   26.027074    ( 0.0000,  0.0000,  0.0000)
  73 Cl     0.277856    3.701000   26.028362    ( 0.0000,  0.0000,  0.0000)
  74 Cl     5.511519    3.701000   26.028137    ( 0.0000,  0.0000,  0.0000)
  75 Cl     0.278094    0.000000   26.027585    ( 0.0000,  0.0000,  0.0000)
  76 Cl     2.894604    0.000000   26.027204    ( 0.0000,  0.0000,  0.0000)
  77 Cl     5.511892    0.000000   26.028780    ( 0.0000,  0.0000,  0.0000)
  78 Cl     4.204375    1.850526    8.363638    ( 0.0000,  0.0000,  0.0000)
  79 Cl     6.821609    1.850496    8.368506    ( 0.0000,  0.0000,  0.0000)
  80 Cl     1.586798    1.850479    8.367335    ( 0.0000,  0.0000,  0.0000)
  81 Cl     1.586798    5.551521    8.367335    ( 0.0000,  0.0000,  0.0000)
  82 Cl     4.204375    5.551474    8.363638    ( 0.0000,  0.0000,  0.0000)
  83 Cl     6.821609    5.551504    8.368506    ( 0.0000,  0.0000,  0.0000)

Unit cell:
           periodic     x           y           z      points  spacing
  1. axis:    yes    7.851007    0.000000    0.000000    45     0.1745
  2. axis:    yes    0.000000    7.402000    0.000000    42     0.1762
  3. axis:    yes    0.000000    0.000000   34.393512   196     0.1755

  Lengths:   7.851007   7.402000  34.393512
  Angles:   90.000000  90.000000  90.000000

Effective grid spacing dv^(1/3) = 0.1754

     iter     time        total  log10-change:
                         energy  eigst   dens
iter:   1 06:10:02 -5886.503336  -3.55
iter:   2 06:10:58 -5886.444482  -4.06  -2.92
iter:   3 06:11:44 -5886.430319c -4.94  -3.15
iter:   4 06:12:34 -5886.433712c -4.55  -3.34
iter:   5 06:13:20 -5886.423743c -5.35  -3.31
iter:   6 06:14:05 -5886.423508c -5.52  -3.79
iter:   7 06:14:58 -5886.423753c -5.66  -4.01c
iter:   8 06:15:41 -5886.423484c -6.47  -4.13c
iter:   9 06:16:31 -5886.423299c -6.02  -4.24c
iter:  10 06:18:01 -5886.423364c -7.12  -4.41c
iter:  11 06:19:08 -5886.423263c -7.40c -4.54c

Converged after 11 iterations.

Dipole moment: (-96.290501, 0.000000, -0.001738) |e|*Ang

Energy contributions relative to reference atoms: (reference = -3392203.925309)

Kinetic:       +647.311969
Potential:     -685.150837
External:        +0.000000
XC:            -5847.167702
Entropy (-ST):   -0.678146
Local:           -1.077621
Free energy:   -5886.762336
Extrapolated:  -5886.423263

Showing only first 2 kpts
 Kpt  Band  Eigenvalues  Occupancy
  0   436      0.92314    1.84758
  0   437      0.92874    1.83951
  0   438      1.24532    0.65180
  0   439      1.28082    0.50634

  1   436      1.35622    0.27509
  1   437      1.39011    0.20410
  1   438      1.47058    0.09673
  1   439      1.59722    0.02824

Fermi level: 1.17264

No gap

Forces in eV/Ang:
  0 Cu    0.00017    0.00000    0.00487
  1 Cu    0.00071   -0.00001    0.00012
  2 Cu    0.00006    0.00001   -0.00030
  3 Cu   -0.00015    0.00000    0.00773
  4 Cu    0.00006    0.00000   -0.01129
  5 Cu    0.00012   -0.00000    0.00645
  6 Cu    0.00017   -0.00000    0.00622
  7 Cu   -0.00008    0.00000   -0.01105
  8 Cu    0.00011    0.00000    0.01215
  9 Cu    0.00025   -0.00000    0.00685
 10 Cu    0.00021    0.00000    0.00681
 11 Cu    0.00006    0.00000    0.01196
 12 Cu    0.00019    0.00000   -0.00200
 13 Cu    0.00007   -0.00004   -0.00839
 14 Cu   -0.00000    0.00003   -0.00836
 15 Cu    0.00026    0.00000   -0.00192
 16 Cu    0.00020    0.00000   -0.00360
 17 Cu    0.00019    0.00010    0.01010
 18 Cu    0.00004   -0.00012    0.01011
 19 Cu    0.00008    0.00000   -0.00384
 20 Cu   -0.00004    0.00000   -0.00164
 21 Cu    0.00002   -0.00046   -0.00943
 22 Cu   -0.00031    0.00039   -0.00961
 23 Cu    0.00065    0.00000   -0.00139
 24 Cu    0.00018    0.00000    0.00487
 25 Cu    0.00071    0.00001    0.00012
 26 Cu    0.00006   -0.00001   -0.00030
 27 Cu   -0.00016    0.00000    0.00773
 28 Cu    0.00006    0.00000   -0.01129
 29 Cu    0.00012    0.00000    0.00645
 30 Cu    0.00017    0.00000    0.00622
 31 Cu   -0.00009    0.00000   -0.01105
 32 Cu    0.00009    0.00000    0.01215
 33 Cu    0.00025    0.00000    0.00685
 34 Cu    0.00021   -0.00000    0.00681
 35 Cu    0.00007    0.00000    0.01193
 36 Cu    0.00021    0.00000   -0.00191
 37 Cu    0.00007    0.00004   -0.00839
 38 Cu   -0.00000   -0.00003   -0.00836
 39 Cu    0.00018    0.00000   -0.00193
 40 Cu    0.00003    0.00000   -0.00364
 41 Cu    0.00019   -0.00010    0.01010
 42 Cu    0.00004    0.00012    0.01011
 43 Cu    0.00015    0.00000   -0.00362
 44 Cu    0.00024    0.00000   -0.00113
 45 Cu    0.00002    0.00046   -0.00943
 46 Cu   -0.00031   -0.00039   -0.00961
 47 Cu   -0.00012    0.00000   -0.00147
 48 Cu   -0.00019   -0.00000    0.00021
 49 Cu   -0.00090    0.00000    0.00555
 50 Cu    0.00038    0.00000   -0.01112
 51 Cu    0.00011   -0.00000    0.00614
 52 Cu    0.00019   -0.00000    0.00685
 53 Cu   -0.00007    0.00000    0.01209
 54 Cu    0.00019    0.00000   -0.00189
 55 Cu    0.00004    0.00001   -0.00843
 56 Cu    0.00014    0.00002    0.01003
 57 Cu    0.00009    0.00000   -0.00363
 58 Cu    0.00014    0.00000   -0.00108
 59 Cu   -0.00021    0.00007   -0.00877
[...]
 69 Cu    0.00021    0.00000   -0.00380
 70 Cu    0.00063    0.00000   -0.00150
 71 Cu   -0.00021   -0.00007   -0.00877
 72 Cl   -0.00395    0.00000   -0.00560
 73 Cl   -0.00121    0.00000   -0.00724
 74 Cl    0.00683    0.00000   -0.00629
 75 Cl   -0.00493    0.00000   -0.00603
 76 Cl    0.00637    0.00000   -0.00580
 77 Cl    0.00034    0.00000   -0.00731
 78 Cl   -0.00213   -0.00001    0.00595
 79 Cl   -0.00856    0.00000    0.00222
 80 Cl    0.01325    0.00001    0.00313
 81 Cl    0.01325   -0.00001    0.00313
 82 Cl   -0.00213    0.00001    0.00595
 83 Cl   -0.00856   -0.00000    0.00222