User:   thorkong@node051.cluster
Date:   Wed Oct 12 19:28:58 2022
Arch:   x86_64
Pid:    14736
Python: 3.10.5
gpaw:   /groups/kemi/thorkong/miniconda3/envs/gpaw22/lib/python3.10/site-packages/gpaw
_gpaw:  /groups/kemi/thorkong/miniconda3/envs/gpaw22/lib/python3.10/site-packages/
        _gpaw.cpython-310-x86_64-linux-gnu.so
ase:    /groups/kemi/thorkong/miniconda3/envs/gpaw22/lib/python3.10/site-packages/ase (version 3.22.1)
numpy:  /groups/kemi/thorkong/miniconda3/envs/gpaw22/lib/python3.10/site-packages/numpy (version 1.23.0)
scipy:  /groups/kemi/thorkong/miniconda3/envs/gpaw22/lib/python3.10/site-packages/scipy (version 1.8.1)
units:  Angstrom and eV
cores: 32
OpenMP: True
OMP_NUM_THREADS: 1

Input parameters:
  basis: dzp
  kpts: [4 4 1]
  mode: {ecut: 600.0,
         name: pw}
  xc: BEEF-vdW

System changes: positions, numbers, cell, pbc, initial_charges, initial_magmoms

Initialize ...

Cu-setup:
  name: Copper
  id: f1c4d45d90492f1bbfdcb091e8418fdf
  Z: 29.0
  valence: 11
  core: 18
  charge: 0.0
  file: /groups/kemi/thorkong/miniconda3/envs/gpaw22/share/gpaw/Cu.PBE.gz
  compensation charges: gauss, rc=0.33, lmax=2
  cutoffs: 2.06(filt), 2.43(core),
  valence states:
                energy  radius
    4s(1.00)    -4.609   1.164
    4p(0.00)    -0.698   1.164
    3d(10.00)    -5.039   1.058
    *s          22.603   1.164
    *p          26.513   1.164
    *d          22.172   1.058

  LCAO basis set for Cu:
    Name: dzp
    File: /groups/kemi/thorkong/miniconda3/envs/gpaw22/share/gpaw/Cu.dzp.basis.gz
    Number of radial functions: 5
    Number of spherical harmonics: 15
      l=0, rc=8.9688 Bohr: 4s-sz confined orbital
      l=2, rc=5.1719 Bohr: 3d-sz confined orbital
      l=0, rc=5.3281 Bohr: 4s-dz split-valence wave
      l=2, rc=3.1406 Bohr: 3d-dz split-valence wave
      l=1, rc=8.9688 Bohr: p-type Gaussian polarization

Cl-setup:
  name: Chlorine
  id: 726897f06f34e53cf8e33b5885a02604
  Z: 17.0
  valence: 7
  core: 10
  charge: 0.0
  file: /groups/kemi/thorkong/miniconda3/envs/gpaw22/share/gpaw/Cl.PBE.gz
  compensation charges: gauss, rc=0.25, lmax=2
  cutoffs: 1.40(filt), 1.49(core),
  valence states:
                energy  radius
    3s(2.00)   -20.689   0.794
    3p(5.00)    -8.594   0.794
    *s           6.523   0.794
    *p          18.617   0.794
    *d           0.000   0.794

  LCAO basis set for Cl:
    Name: dzp
    File: /groups/kemi/thorkong/miniconda3/envs/gpaw22/share/gpaw/Cl.dzp.basis.gz
    Number of radial functions: 5
    Number of spherical harmonics: 13
      l=0, rc=5.1719 Bohr: 3s-sz confined orbital
      l=1, rc=6.2656 Bohr: 3p-sz confined orbital
      l=0, rc=2.8281 Bohr: 3s-dz split-valence wave
      l=1, rc=3.5156 Bohr: 3p-dz split-valence wave
      l=2, rc=6.2656 Bohr: d-type Gaussian polarization

Reference energy: -3266654.431352

Spin-paired calculation

Convergence criteria:
 Maximum [total energy] change in last 3 cyles: 0.0005 eV / electron
 Maximum integral of absolute [dens]ity change: 0.0001 electrons / valence electron
 Maximum integral of absolute [eigenst]ate change: 4e-08 eV^2 / valence electron
 Maximum number of scf [iter]ations: 333
 (Square brackets indicate name in SCF output, whereas a 'c' in
 the SCF output indicates the quantity has converged.)

Symmetries present (total): 1

  ( 1  0  0)
  ( 0  1  0)
  ( 0  0  1)

16 k-points: 4 x 4 x 1 Monkhorst-Pack grid
8 k-points in the irreducible part of the Brillouin zone
       k-points in crystal coordinates                weights
   0:     0.12500000   -0.37500000    0.00000000          2/16
   1:     0.12500000   -0.12500000    0.00000000          2/16
   2:     0.12500000    0.12500000    0.00000000          2/16
   3:     0.12500000    0.37500000    0.00000000          2/16
   4:     0.37500000   -0.37500000    0.00000000          2/16
   5:     0.37500000   -0.12500000    0.00000000          2/16
   6:     0.37500000    0.12500000    0.00000000          2/16
   7:     0.37500000    0.37500000    0.00000000          2/16

Wave functions: Plane wave expansion
  Cutoff energy: 600.000 eV
  Number of coefficients (min, max): 66642, 66743
  Pulay-stress correction: 0.000000 eV/Ang^3 (de/decut=0.000000)
  Using FFTW library
  ScaLapack parameters: grid=2x2, blocksize=64
  Wavefunction extrapolation:
    Improved wavefunction reuse through dual PAW basis

Occupation numbers: Fermi-Dirac: width=0.1000 eV

Eigensolver
   Davidson(niter=2)

Densities:
  Coarse grid: 45*42*196 grid
  Fine grid: 90*84*392 grid
  Total Charge: 0.000000

Density mixing:
  Method: separate
  Backend: pulay
  Linear mixing parameter: 0.05
  Mixing with 5 old densities
  Damping of long wave oscillations: 50

Hamiltonian:
  XC and Coulomb potentials evaluated on a 90*84*392 grid
  Using the BEEF-vdW Exchange-Correlation functional
  External potential:
    NoExternalPotential

XC parameters: BEEF-vdW with 2 nearest neighbor stencil

Total number of cores used: 32
Parallelization over k-points: 8
Domain decomposition: 1 x 1 x 4
                      2 x 2 x 8 (xc only)

Number of atoms: 74
Number of atomic orbitals: 1106
Number of bands in calculation: 488
Number of valence electrons: 806
Bands to converge: occupied

... initialized

Initializing position-dependent things.

Density initialized from atomic densities
Creating initial wave functions:
  488 bands from LCAO basis set

 |    |  Cu    Cu        |
 |    |  Cl          Cu  |
 |  CuCu   CCu   CuCu    |
 |    |  Cu  CuCu    Cu  |
 |CuCuCuCu CCuCu CuCu    |
 |    |  Cu    Cu    Cu  |
 |Cu  Cu    CuCu   Cu    |
 |  Cu|  CuCu  CuCu  Cu  |
 |Cu  | Cu    Cu         |
 |  CuCu CuCCu CuCuCuCu  |
 |Cu  | Cu    Cu         |
 |  CuCu CCuCu CuCuCuCu  |
 |    |Cu    Cu    Cu    |
 |CuCuCuCuCuCuCu CuCu    |
 |    |       Cl         |

Positions:
   0 Cu     2.881307   -0.033051   10.012274    ( 0.0000,  0.0000,  0.0000)
   1 Cu     1.615014    1.849371   11.210930    ( 0.0000,  0.0000,  0.0000)
   2 Cu     4.202165    1.849367   11.210270    ( 0.0000,  0.0000,  0.0000)
   3 Cu     0.277313   -0.008781   10.065299    ( 0.0000,  0.0000,  0.0000)
   4 Cu     0.277151    0.030302   12.608007    ( 0.0000,  0.0000,  0.0000)
   5 Cu     4.202831    1.850049   13.905377    ( 0.0000,  0.0000,  0.0000)
   6 Cu     1.586793    1.850012   13.906871    ( 0.0000,  0.0000,  0.0000)
   7 Cu     2.892956    0.015833   12.593976    ( 0.0000,  0.0000,  0.0000)
   8 Cu     2.892560    0.002648   15.223860    ( 0.0000,  0.0000,  0.0000)
   9 Cu     1.586045    1.851568   16.539788    ( 0.0000,  0.0000,  0.0000)
  10 Cu     4.201930    1.851551   16.542306    ( 0.0000,  0.0000,  0.0000)
  11 Cu     0.277659    0.001974   15.225285    ( 0.0000,  0.0000,  0.0000)
  12 Cu     0.277837    0.000208   17.852273    ( 0.0000,  0.0000,  0.0000)
  13 Cu     4.204040    1.852536   19.170830    ( 0.0000,  0.0000,  0.0000)
  14 Cu     1.585562    1.852767   19.166905    ( 0.0000,  0.0000,  0.0000)
  15 Cu     2.895223    0.001462   17.855499    ( 0.0000,  0.0000,  0.0000)
  16 Cu     2.894457   -0.000421   20.462639    ( 0.0000,  0.0000,  0.0000)
  17 Cu     1.584881    1.865812   21.796081    ( 0.0000,  0.0000,  0.0000)
  18 Cu     4.204633    1.866726   21.801811    ( 0.0000,  0.0000,  0.0000)
  19 Cu     0.272395    0.000413   20.477134    ( 0.0000,  0.0000,  0.0000)
  20 Cu     0.261313    0.000192   23.092869    ( 0.0000,  0.0000,  0.0000)
  21 Cu     4.215798    1.820280   24.382235    ( 0.0000,  0.0000,  0.0000)
  22 Cu     1.573771    1.817734   24.374793    ( 0.0000,  0.0000,  0.0000)
  23 Cu     2.895776    0.000576   23.013343    ( 0.0000,  0.0000,  0.0000)
  24 Cu     2.881501    3.731487   10.010325    ( 0.0000,  0.0000,  0.0000)
  25 Cu     1.570867    5.551363   11.296211    ( 0.0000,  0.0000,  0.0000)
  26 Cu     4.201563    5.550913   11.379154    ( 0.0000,  0.0000,  0.0000)
  27 Cu     0.277287    3.709210   10.067168    ( 0.0000,  0.0000,  0.0000)
  28 Cu     0.277666    3.670873   12.611596    ( 0.0000,  0.0000,  0.0000)
  29 Cu     4.202774    5.551957   13.930054    ( 0.0000,  0.0000,  0.0000)
  30 Cu     1.581068    5.551422   13.914278    ( 0.0000,  0.0000,  0.0000)
  31 Cu     2.892683    3.684822   12.590513    ( 0.0000,  0.0000,  0.0000)
  32 Cu     2.893149    3.698875   15.221777    ( 0.0000,  0.0000,  0.0000)
  33 Cu     1.587109    5.549959   16.540304    ( 0.0000,  0.0000,  0.0000)
  34 Cu     4.202104    5.549977   16.537589    ( 0.0000,  0.0000,  0.0000)
  35 Cu     0.278273    3.699230   15.231830    ( 0.0000,  0.0000,  0.0000)
  36 Cu     0.276461    3.700926   17.852758    ( 0.0000,  0.0000,  0.0000)
  37 Cu     4.204602    5.548922   19.168611    ( 0.0000,  0.0000,  0.0000)
  38 Cu     1.584466    5.548778   19.172913    ( 0.0000,  0.0000,  0.0000)
  39 Cu     2.895393    3.700010   17.850531    ( 0.0000,  0.0000,  0.0000)
  40 Cu     2.894344    3.701412   20.487387    ( 0.0000,  0.0000,  0.0000)
  41 Cu     1.583925    5.535438   21.801505    ( 0.0000,  0.0000,  0.0000)
  42 Cu     4.204360    5.535603   21.798410    ( 0.0000,  0.0000,  0.0000)
  43 Cu     0.278379    3.700995   20.484548    ( 0.0000,  0.0000,  0.0000)
  44 Cu     0.305798    3.702184   23.178302    ( 0.0000,  0.0000,  0.0000)
  45 Cu     4.215997    5.584261   24.380253    ( 0.0000,  0.0000,  0.0000)
  46 Cu     1.573165    5.585656   24.380679    ( 0.0000,  0.0000,  0.0000)
  47 Cu     2.895132    3.702134   23.181769    ( 0.0000,  0.0000,  0.0000)
  48 Cu     6.791388    1.849319   11.213938    ( 0.0000,  0.0000,  0.0000)
  49 Cu     5.524238   -0.034309   10.011911    ( 0.0000,  0.0000,  0.0000)
  50 Cu     5.513327    0.015988   12.590807    ( 0.0000,  0.0000,  0.0000)
  51 Cu     6.818876    1.850480   13.908472    ( 0.0000,  0.0000,  0.0000)
  52 Cu     6.820626    1.850654   16.540160    ( 0.0000,  0.0000,  0.0000)
  53 Cu     5.512811    0.002794   15.219715    ( 0.0000,  0.0000,  0.0000)
  54 Cu     5.510013    0.001471   17.852607    ( 0.0000,  0.0000,  0.0000)
  55 Cu     6.818961    1.852303   19.161178    ( 0.0000,  0.0000,  0.0000)
  56 Cu     6.819662    1.880776   21.780926    ( 0.0000,  0.0000,  0.0000)
  57 Cu     5.516306    0.000118   20.478704    ( 0.0000,  0.0000,  0.0000)
  58 Cu     5.526676    0.000128   23.096436    ( 0.0000,  0.0000,  0.0000)
  59 Cu     6.820083    1.842411   24.325580    ( 0.0000,  0.0000,  0.0000)
  60 Cu     6.835779    5.551283   11.299810    ( 0.0000,  0.0000,  0.0000)
  61 Cu     5.523650    3.733878   10.017786    ( 0.0000,  0.0000,  0.0000)
  62 Cu     5.512379    3.685750   12.596170    ( 0.0000,  0.0000,  0.0000)
  63 Cu     6.824875    5.551107   13.915818    ( 0.0000,  0.0000,  0.0000)
  64 Cu     6.819323    5.551216   16.540751    ( 0.0000,  0.0000,  0.0000)
  65 Cu     5.511750    3.698675   15.225890    ( 0.0000,  0.0000,  0.0000)
  66 Cu     5.511150    3.700003   17.853038    ( 0.0000,  0.0000,  0.0000)
  67 Cu     6.819594    5.549493   19.167560    ( 0.0000,  0.0000,  0.0000)
  68 Cu     6.820161    5.521058   21.784567    ( 0.0000,  0.0000,  0.0000)
  69 Cu     5.510595    3.701447   20.486117    ( 0.0000,  0.0000,  0.0000)
  70 Cu     5.482397    3.702113   23.181291    ( 0.0000,  0.0000,  0.0000)
[...]
 Kpt  Band  Eigenvalues  Occupancy
  0   401      0.69491    1.48233
  0   402      0.76014    1.19720
  0   403      0.90158    0.53212
  0   404      0.92805    0.43529

  1   401      0.44312    1.94522
  1   402      0.47412    1.92605
  1   403      0.61792    1.72159
  1   404      0.67882    1.54163

Fermi level: 0.80011

No gap

Forces in eV/Ang:
  0 Cu    0.07879   -0.06042    0.17434
  1 Cu   -0.15839    0.00181    0.12719
  2 Cu    0.00387   -0.26778    0.32882
  3 Cu   -0.00043   -0.01525   -0.02742
  4 Cu    0.00394   -0.04375    0.04876
  5 Cu    0.00315    0.01920   -0.01382
  6 Cu   -0.00110   -0.00214    0.02408
  7 Cu   -0.02909    0.01410    0.02399
  8 Cu    0.00306   -0.00164   -0.01262
  9 Cu    0.01029   -0.00760    0.00669
 10 Cu   -0.00217   -0.00892   -0.01652
 11 Cu   -0.00114    0.00107    0.03047
 12 Cu    0.00378   -0.01068   -0.00040
 13 Cu   -0.00669    0.00818   -0.01520
 14 Cu   -0.00112    0.00780   -0.00194
 15 Cu   -0.00543   -0.01241   -0.03134
 16 Cu    0.00046    0.01324   -0.02085
 17 Cu   -0.04756    0.01696   -0.00290
 18 Cu    0.04936    0.01793   -0.02326
 19 Cu    0.01493   -0.00604   -0.00084
 20 Cu    0.07812    0.01526    0.03742
 21 Cu    2.29746   -0.01210   -2.24566
 22 Cu   -2.30276   -0.00956   -2.28204
 23 Cu    0.00122   -0.22576    0.15138
 24 Cu   -2.06753    0.19664    2.03859
 25 Cu    0.08921   -0.02383   -0.03941
 26 Cu   -0.00082    0.20909   -0.18196
 27 Cu   -0.00132    0.01598    0.09568
 28 Cu    0.00125    0.03150   -0.02440
 29 Cu    0.00015   -0.01067    0.02344
 30 Cu    0.01402    0.01035   -0.01325
 31 Cu   -0.04706   -0.01275    0.01887
 32 Cu    0.00758   -0.00699    0.01394
 33 Cu   -0.00075    0.01598    0.01167
 34 Cu    0.00446    0.01179    0.03029
 35 Cu   -0.00723   -0.00150   -0.07736
 36 Cu    0.00952    0.00798   -0.01478
 37 Cu   -0.00217    0.00082    0.01481
 38 Cu    0.00204   -0.00315    0.00238
 39 Cu    0.00166    0.00715    0.01495
 40 Cu   -0.00179   -0.01736    0.00914
 41 Cu   -0.02490   -0.00654   -0.03396
 42 Cu    0.02954   -0.00793   -0.02452
 43 Cu    0.00130    0.00429   -0.03372
 44 Cu   -0.14303   -0.01519   -0.11848
 45 Cu   -0.07808    0.04201   -0.17434
 46 Cu    0.07761    0.03555   -0.18599
 47 Cu   -0.00301    0.26583   -0.31385
 48 Cu    0.15289    0.00607    0.12464
 49 Cu   -0.07720   -0.05384    0.18526
 50 Cu    0.02537    0.01271    0.03363
 51 Cu   -0.00082   -0.00253    0.03063
 52 Cu   -0.00887   -0.00873    0.01583
 53 Cu   -0.00169    0.00126   -0.00225
 54 Cu    0.00156   -0.01524   -0.01231
 55 Cu    0.00776    0.00247    0.07668
 56 Cu   -0.00064   -0.03314    0.02547
 57 Cu   -0.01433   -0.00905    0.01134
 58 Cu   -0.07983    0.01501    0.03284
 59 Cu   -0.00084   -0.01220   -0.09993
 60 Cu   -0.08706   -0.02360   -0.04555
 61 Cu    1.99268    0.18847    1.96018
 62 Cu    0.04512   -0.01257    0.00009
 63 Cu   -0.01441    0.00709   -0.00038
 64 Cu   -0.00265    0.01185   -0.00060
 65 Cu    0.00053   -0.00783   -0.00068
 66 Cu   -0.00952    0.00686   -0.00589
 67 Cu    0.00080    0.00161   -0.03084
 68 Cu   -0.00415    0.04033   -0.05098
 69 Cu   -0.00003    0.00397   -0.02709
 70 Cu    0.14845   -0.01174   -0.11879
 71 Cu    0.00034    0.01729    0.02805
 72 Cl    0.00459   -0.12614    5.36690
 73 Cl    0.07864   -0.17893   -4.80484

System changes: positions

[...]

Density initialized from wave functions
 |    |  Cu    Cu        |
 |    |  Cl  Cu      Cu  |
 |  CuCu   CuCu  CuCu    |
 |    |  Cu    Cu  CuCu  |
 |CuCuCu   CCuCu CuCu    |
 |    |CuCu    Cu    Cu  |
 |Cu  CuCu  Cu     Cu    |
 |  Cu|  CuCu  CuCu  Cu  |
 |    | Cu    Cu         |
 |  CuCu CuCCu CuCuCuCu  |
 |Cu  | Cu    Cu         |
 |  CuCu CCuCu CuCuCuCu  |
 |    |Cu    Cu    Cu    |
 |CuCuCuCuCuCuCu CuCu    |
 |    |       Cl         |

[...]

Density initialized from wave functions
 |    |  Cu    Cu        |
 |    |CuCl  Cu    CuCu  |
 |  CuCu   CuCu  CuCu    |
 |    |CuCu    Cu  CuCu  |
 |  CuCu   CCu   CuCu    |
 |    |CuCu    Cu    Cu  |
 |    CuCu  Cu     Cu    |
 |  Cu|  CuCu  CuCu  Cu  |
 |    | Cu    Cu         |
 |  CuCu CuCCu CuCuCuCu  |
 |Cu  | Cu    Cu         |
 |  CuCu CCuCu CuCuCuCu  |
 |    |Cu    Cu    Cu    |
 |CuCuCuCuCuCuCu CuCu    |
 |    |       Cl         |

[...]

Density initialized from wave functions
 |    |CuCl  CuCu  CuCu  |
 |  CuCu   CCu   CuCu    |
 |    |CuCu    Cu  CuCu  |
 |    Cu   CCu   CuCu    |
 |  Cu|CuCu  CuCu    Cu  |
 |    CuCu  Cu     Cu    |
 |  Cu|  CuCu  CuCu  Cu  |
 |    |       Cu         |
 |  CuCu CuCCu CuCuCuCu  |
 |Cu  | Cu    Cu         |
 |  CuCu CCuCu CuCuCuCu  |
 |    |Cu    Cu    Cu    |
 |CuCuCuCuCuCuCu CuCu    |
 |    |       Cl         |

[...]

Density initialized from wave functions
 |    |CuCl  CuCu  CuCu  |
 |  CuCu   CCu   CuCu    |
 |    |  Cu    Cu    Cu  |
 |    Cu    Cu     Cu    |
 |  Cu|CuCuCuCuCuCu  Cu  |
 |Cu  CuCu  CuCu   Cu    |
 |  Cu|  CuCu  CuCu  Cu  |
 |    |       Cu         |
 |  CuCu CuCCu CuCuCuCu  |
 |Cu  | Cu    Cu         |
 |  CuCu CCuCu CuCuCuCu  |
 |    |Cu    Cu    Cu    |
 |CuCuCuCuCuCuCu CuCu    |
 |    |       Cl         |

[...]

Density initialized from wave functions
 |    |  Cl  CuCu    Cu  |
 |  CuCu   CCu   CuCu    |
 |    |  Cu    Cu    Cu  |
 |Cu  Cu    CuCu   Cu    |
 |  Cu|  CCu CuCuCu  Cu  |
 |Cu  CuCu  CuCu   Cu    |
 |  Cu|  CuCuCuCuCu  Cu  |
 |Cu  |       Cu         |
 |  CuCu CuCCu CuCuCuCu  |
 |Cu  |       Cu         |
 |  CuCu CCuCu CuCuCuCu  |
 |    |Cu    Cu    Cu    |
 |CuCuCuCuCuCuCu CuCu    |
 |    |       Cl         |

[...]

Density initialized from wave functions
 |    |  Cl  CuCu    Cu  |
 |  CuCu   CCu   CuCu    |
 |    |  Cu    Cu    Cu  |
 |Cu  Cu    CuCu   Cu    |
 |  Cu|  CCu   CuCu  Cu  |
 |Cu  CuCu  CuCu   Cu    |
 |  Cu|  CuCuCuCuCu  Cu  |
 |Cu  | Cu    Cu         |
 |  CuCu CuCCu CuCuCuCu  |
 |Cu  |       Cu         |
 |  CuCu CCuCu CuCuCuCu  |
 |    |Cu    Cu    Cu    |
 |CuCuCuCuCuCuCu CuCu    |
 |    |       Cl         |

[...]

System changes: positions

Initializing position-dependent things.

Density initialized from wave functions
 |    |  Cl  CuCu    Cu  |
 |  CuCu   CCu   CuCu    |
 |    |  Cu    Cu    Cu  |
 |Cu  Cu    CuCu   Cu    |
 |  Cu|  CCu   CuCu  Cu  |
 |Cu  CuCu  CuCu   Cu    |
 |  Cu|  CuCuCuCuCu  Cu  |
 |Cu  | Cu    Cu         |
 |  CuCu CuCCu CuCuCuCu  |
 |Cu  |       Cu         |
 |  CuCu CCuCu CuCuCuCu  |
 |    |Cu    Cu    Cu    |
 |CuCuCuCuCuCuCu CuCu    |
 |    |       Cl         |

Positions:
   0 Cu     2.893249   -0.009013   10.079935    ( 0.0000,  0.0000,  0.0000)
   1 Cu     1.591035    1.857611   11.262661    ( 0.0000,  0.0000,  0.0000)
   2 Cu     4.201834    1.841809   11.295676    ( 0.0000,  0.0000,  0.0000)
   3 Cu     0.277666   -0.009469   10.084997    ( 0.0000,  0.0000,  0.0000)
   4 Cu     0.277849    0.003618   12.626767    ( 0.0000,  0.0000,  0.0000)
   5 Cu     4.202668    1.862513   13.923708    ( 0.0000,  0.0000,  0.0000)
   6 Cu     1.586463    1.852775   13.921192    ( 0.0000,  0.0000,  0.0000)
   7 Cu     2.889400    0.003545   12.629227    ( 0.0000,  0.0000,  0.0000)
   8 Cu     2.895466   -0.000271   15.229461    ( 0.0000,  0.0000,  0.0000)
   9 Cu     1.588247    1.851385   16.545856    ( 0.0000,  0.0000,  0.0000)
  10 Cu     4.201591    1.852496   16.545727    ( 0.0000,  0.0000,  0.0000)
  11 Cu     0.277809    0.001734   15.236454    ( 0.0000,  0.0000,  0.0000)
  12 Cu     0.278211    0.000883   17.850829    ( 0.0000,  0.0000,  0.0000)
  13 Cu     4.204728    1.850775   19.171325    ( 0.0000,  0.0000,  0.0000)
  14 Cu     1.584458    1.852521   19.171085    ( 0.0000,  0.0000,  0.0000)
  15 Cu     2.894601    0.002325   17.849783    ( 0.0000,  0.0000,  0.0000)
  16 Cu     2.894236    0.012687   20.468701    ( 0.0000,  0.0000,  0.0000)
  17 Cu     1.584204    1.855644   21.820509    ( 0.0000,  0.0000,  0.0000)
  18 Cu     4.205662    1.855442   21.821840    ( 0.0000,  0.0000,  0.0000)
  19 Cu     0.277320    0.003097   20.469516    ( 0.0000,  0.0000,  0.0000)
  20 Cu     0.282256    0.008318   23.110120    ( 0.0000,  0.0000,  0.0000)
  21 Cu     4.232873    1.841925   24.430560    ( 0.0000,  0.0000,  0.0000)
  22 Cu     1.555398    1.844008   24.424642    ( 0.0000,  0.0000,  0.0000)
  23 Cu     2.895568   -0.008221   23.079835    ( 0.0000,  0.0000,  0.0000)
  24 Cu     2.864475    3.710782    9.962758    ( 0.0000,  0.0000,  0.0000)
  25 Cu     1.591976    5.541691   11.280182    ( 0.0000,  0.0000,  0.0000)
  26 Cu     4.202041    5.558211   11.310184    ( 0.0000,  0.0000,  0.0000)
  27 Cu     0.277822    3.707697   10.093271    ( 0.0000,  0.0000,  0.0000)
  28 Cu     0.277595    3.695861   12.630222    ( 0.0000,  0.0000,  0.0000)
  29 Cu     4.203472    5.539712   13.923294    ( 0.0000,  0.0000,  0.0000)
  30 Cu     1.585302    5.549330   13.921336    ( 0.0000,  0.0000,  0.0000)
  31 Cu     2.891979    3.696489   12.570906    ( 0.0000,  0.0000,  0.0000)
  32 Cu     2.893008    3.701406   15.220839    ( 0.0000,  0.0000,  0.0000)
  33 Cu     1.586757    5.551594   16.543688    ( 0.0000,  0.0000,  0.0000)
  34 Cu     4.203073    5.549574   16.542388    ( 0.0000,  0.0000,  0.0000)
  35 Cu     0.277652    3.699826   15.228727    ( 0.0000,  0.0000,  0.0000)
  36 Cu     0.278347    3.700871   17.844615    ( 0.0000,  0.0000,  0.0000)
  37 Cu     4.202226    5.552299   19.162667    ( 0.0000,  0.0000,  0.0000)
  38 Cu     1.587282    5.550511   19.162081    ( 0.0000,  0.0000,  0.0000)
  39 Cu     2.896094    3.699332   17.846167    ( 0.0000,  0.0000,  0.0000)
  40 Cu     2.895034    3.689744   20.468648    ( 0.0000,  0.0000,  0.0000)
  41 Cu     1.581145    5.547784   21.761122    ( 0.0000,  0.0000,  0.0000)
  42 Cu     4.208363    5.548067   21.763035    ( 0.0000,  0.0000,  0.0000)
  43 Cu     0.277513    3.699240   20.468279    ( 0.0000,  0.0000,  0.0000)
  44 Cu     0.282403    3.692379   23.126419    ( 0.0000,  0.0000,  0.0000)
  45 Cu     4.204347    5.557399   24.312269    ( 0.0000,  0.0000,  0.0000)
  46 Cu     1.585207    5.556171   24.307688    ( 0.0000,  0.0000,  0.0000)
  47 Cu     2.895682    3.707975   23.099015    ( 0.0000,  0.0000,  0.0000)
  48 Cu     6.815902    1.857266   11.266864    ( 0.0000,  0.0000,  0.0000)
  49 Cu     5.512292   -0.007627   10.084231    ( 0.0000,  0.0000,  0.0000)
  50 Cu     5.516568    0.003856   12.630858    ( 0.0000,  0.0000,  0.0000)
  51 Cu     6.820227    1.852728   13.924166    ( 0.0000,  0.0000,  0.0000)
  52 Cu     6.819210    1.851175   16.547654    ( 0.0000,  0.0000,  0.0000)
  53 Cu     5.510471    0.001413   15.229784    ( 0.0000,  0.0000,  0.0000)
  54 Cu     5.510806    0.000434   17.848219    ( 0.0000,  0.0000,  0.0000)
  55 Cu     6.820027    1.852260   19.163515    ( 0.0000,  0.0000,  0.0000)
  56 Cu     6.820094    1.855667   21.761999    ( 0.0000,  0.0000,  0.0000)
  57 Cu     5.512423    0.002682   20.470960    ( 0.0000,  0.0000,  0.0000)
  58 Cu     5.506106    0.008663   23.111884    ( 0.0000,  0.0000,  0.0000)
  59 Cu     6.819522    1.843288   24.299220    ( 0.0000,  0.0000,  0.0000)
  60 Cu     6.814604    5.542052   11.281643    ( 0.0000,  0.0000,  0.0000)
  61 Cu     5.541587    3.708289    9.968467    ( 0.0000,  0.0000,  0.0000)
  62 Cu     5.513459    3.696217   12.572367    ( 0.0000,  0.0000,  0.0000)
  63 Cu     6.820366    5.548841   13.922651    ( 0.0000,  0.0000,  0.0000)
  64 Cu     6.819498    5.551245   16.541105    ( 0.0000,  0.0000,  0.0000)
  65 Cu     5.513131    3.699586   15.221299    ( 0.0000,  0.0000,  0.0000)
  66 Cu     5.509488    3.700623   17.846432    ( 0.0000,  0.0000,  0.0000)
  67 Cu     6.819828    5.550615   19.155631    ( 0.0000,  0.0000,  0.0000)
  68 Cu     6.819845    5.546713   21.765705    ( 0.0000,  0.0000,  0.0000)
  69 Cu     5.511227    3.699174   20.471342    ( 0.0000,  0.0000,  0.0000)
  70 Cu     5.505644    3.692016   23.130762    ( 0.0000,  0.0000,  0.0000)
  71 Cu     6.819911    5.559715   24.306944    ( 0.0000,  0.0000,  0.0000)
  72 Cl     2.887818    1.790073   26.301630    ( 0.0000,  0.0000,  0.0000)
  73 Cl     4.208862    3.653676    8.090793    ( 0.0000,  0.0000,  0.0000)

Unit cell:
           periodic     x           y           z      points  spacing
  1. axis:    yes    7.851007    0.000000    0.000000    45     0.1745
  2. axis:    yes    0.000000    7.402000    0.000000    42     0.1762
  3. axis:    yes    0.000000    0.000000   34.393512   196     0.1755

  Lengths:   7.851007   7.402000  34.393512
  Angles:   90.000000  90.000000  90.000000

Effective grid spacing dv^(1/3) = 0.1754

     iter     time        total  log10-change:
                         energy  eigst   dens
iter:   1 22:30:11 -5526.278782  -3.61
iter:   2 22:31:16 -5526.221566  -3.60  -2.77
iter:   3 22:32:20 -5526.198048c -4.36  -2.99
iter:   4 22:33:28 -5526.169248c -5.11  -3.06
iter:   5 22:34:34 -5526.167992c -5.01  -3.62
iter:   6 22:35:38 -5526.167815c -6.29  -4.06c
iter:   7 22:36:42 -5526.167778c -5.82  -4.17c
iter:   8 22:37:46 -5526.167772c -7.11  -4.29c
iter:   9 22:38:50 -5526.167762c -6.58  -4.38c
iter:  10 22:39:54 -5526.167734c -7.41c -4.45c

Converged after 10 iterations.

Dipole moment: (-70.519307, -0.454532, 0.002466) |e|*Ang

Energy contributions relative to reference atoms: (reference = -3266654.431352)

Kinetic:       +512.871711
Potential:     -573.811775
External:        +0.000000
XC:            -5463.931395
Entropy (-ST):   -0.745432
Local:           -0.923559
Free energy:   -5526.540450
Extrapolated:  -5526.167734

Showing only first 2 kpts
 Kpt  Band  Eigenvalues  Occupancy
  0   401      0.45549    1.47421
  0   402      0.52291    1.17653
  0   403      0.64812    0.58004
  0   404      0.67980    0.45864

  1   401      0.22693    1.92998
  1   402      0.24032    1.92035
  1   403      0.38539    1.69933
  1   404      0.42572    1.58126

Fermi level: 0.55859

No gap

Forces in eV/Ang:
  0 Cu   -0.00069   -0.00305   -0.00643
  1 Cu   -0.00118   -0.00456    0.01343
  2 Cu    0.00013    0.00107    0.00796
  3 Cu    0.00039    0.00068   -0.01517
  4 Cu    0.00034   -0.00934    0.00165
  5 Cu    0.00055   -0.00174   -0.00404
  6 Cu   -0.00029    0.00233    0.00317
  7 Cu    0.00138   -0.00533   -0.00628
  8 Cu    0.00165   -0.00168   -0.00506
  9 Cu   -0.00096   -0.00130   -0.00036
 10 Cu    0.00097   -0.00266   -0.00546
 11 Cu   -0.00031   -0.00374    0.00513
 12 Cu    0.00034   -0.00176    0.00124
 13 Cu   -0.00205   -0.00087   -0.00336
 14 Cu    0.00262   -0.00225   -0.00136
 15 Cu    0.00129   -0.00225   -0.00254
 16 Cu    0.00090   -0.00331    0.00632
 17 Cu    0.00319   -0.00704   -0.00510
 18 Cu   -0.00282   -0.00577   -0.00580
 19 Cu    0.00276    0.00151   -0.00225
 20 Cu   -0.00088   -0.00361    0.00275
 21 Cu   -0.00935   -0.00128   -0.00498
 22 Cu    0.00969   -0.00142   -0.00512
 23 Cu    0.00017    0.00380    0.01381
 24 Cu    0.00823    0.00011    0.00169
 25 Cu   -0.00099    0.00255   -0.00584
 26 Cu   -0.00001   -0.00481   -0.01697
 27 Cu    0.00038    0.00216   -0.00230
 28 Cu    0.00068    0.00938   -0.01080
 29 Cu   -0.00062    0.00302   -0.00930
 30 Cu    0.00362   -0.00181   -0.00180
 31 Cu    0.00239    0.00613    0.00351
 32 Cu    0.00200    0.00088    0.00038
 33 Cu    0.00131    0.00080   -0.00109
 34 Cu   -0.00101    0.00181   -0.00050
 35 Cu    0.00032    0.00373   -0.00957
 36 Cu    0.00016    0.00224   -0.00492
 37 Cu   -0.00160    0.00122    0.00191
 38 Cu    0.00154    0.00259    0.00145
 39 Cu   -0.00098    0.00278    0.00248
 40 Cu   -0.00038    0.00121    0.00204
 41 Cu    0.00130    0.00562    0.00471
 42 Cu   -0.00134    0.00443    0.00397
 43 Cu    0.00038   -0.00311   -0.00543
 44 Cu   -0.00107    0.00421   -0.01414
 45 Cu    0.00066    0.00292    0.00350
 46 Cu   -0.00066    0.00302    0.00447
 47 Cu    0.00005   -0.00084   -0.00986
 48 Cu    0.00170   -0.00395    0.01226
 49 Cu    0.00164   -0.00312   -0.00726
 50 Cu   -0.00084   -0.00662   -0.00677
 51 Cu   -0.00006    0.00278    0.00179
 52 Cu    0.00020   -0.00201    0.00245
 53 Cu   -0.00111   -0.00306   -0.00441
 54 Cu   -0.00127   -0.00105   -0.00157
 55 Cu   -0.00021   -0.00361    0.00720
 56 Cu   -0.00027   -0.00945    0.00779
 57 Cu   -0.00323    0.00131   -0.00176
 58 Cu    0.00054   -0.00370    0.00315
 59 Cu   -0.00019   -0.00314   -0.00029
 60 Cu    0.00188    0.00233   -0.00552
 61 Cu   -0.00718    0.00039    0.00213
 62 Cu   -0.00234    0.00742    0.00259
 63 Cu   -0.00275   -0.00214   -0.00151
 64 Cu    0.00004    0.00148   -0.00441
 65 Cu   -0.00202    0.00216   -0.00152
 66 Cu    0.00127    0.00151   -0.00238
 67 Cu    0.00042    0.00346   -0.00921
 68 Cu   -0.00007    0.00812   -0.00587
 69 Cu    0.00044   -0.00272   -0.00667
 70 Cu    0.00116    0.00468   -0.01515
 71 Cu    0.00002   -0.00116    0.01456
 72 Cl   -0.00113    0.00416    0.02061
 73 Cl    0.00201    0.00821   -0.00880