User:   thorkong@node025.cluster
Date:   Sat Oct  8 21:45:24 2022
Arch:   x86_64
Pid:    48264
Python: 3.10.5
gpaw:   /groups/kemi/thorkong/miniconda3/envs/gpaw22/lib/python3.10/site-packages/gpaw
_gpaw:  /groups/kemi/thorkong/miniconda3/envs/gpaw22/lib/python3.10/site-packages/
        _gpaw.cpython-310-x86_64-linux-gnu.so
ase:    /groups/kemi/thorkong/miniconda3/envs/gpaw22/lib/python3.10/site-packages/ase (version 3.22.1)
numpy:  /groups/kemi/thorkong/miniconda3/envs/gpaw22/lib/python3.10/site-packages/numpy (version 1.23.0)
scipy:  /groups/kemi/thorkong/miniconda3/envs/gpaw22/lib/python3.10/site-packages/scipy (version 1.8.1)
units:  Angstrom and eV
cores: 32
OpenMP: True
OMP_NUM_THREADS: 1

Input parameters:
  basis: dzp
  kpts: [4 4 1]
  mode: {ecut: 600.0,
         name: pw}
  xc: BEEF-vdW

System changes: positions, numbers, cell, pbc, initial_charges, initial_magmoms

Initialize ...

Cu-setup:
  name: Copper
  id: f1c4d45d90492f1bbfdcb091e8418fdf
  Z: 29.0
  valence: 11
  core: 18
  charge: 0.0
  file: /groups/kemi/thorkong/miniconda3/envs/gpaw22/share/gpaw/Cu.PBE.gz
  compensation charges: gauss, rc=0.33, lmax=2
  cutoffs: 2.06(filt), 2.43(core),
  valence states:
                energy  radius
    4s(1.00)    -4.609   1.164
    4p(0.00)    -0.698   1.164
    3d(10.00)    -5.039   1.058
    *s          22.603   1.164
    *p          26.513   1.164
    *d          22.172   1.058

  LCAO basis set for Cu:
    Name: dzp
    File: /groups/kemi/thorkong/miniconda3/envs/gpaw22/share/gpaw/Cu.dzp.basis.gz
    Number of radial functions: 5
    Number of spherical harmonics: 15
      l=0, rc=8.9688 Bohr: 4s-sz confined orbital
      l=2, rc=5.1719 Bohr: 3d-sz confined orbital
      l=0, rc=5.3281 Bohr: 4s-dz split-valence wave
      l=2, rc=3.1406 Bohr: 3d-dz split-valence wave
      l=1, rc=8.9688 Bohr: p-type Gaussian polarization

Cl-setup:
  name: Chlorine
  id: 726897f06f34e53cf8e33b5885a02604
  Z: 17.0
  valence: 7
  core: 10
  charge: 0.0
  file: /groups/kemi/thorkong/miniconda3/envs/gpaw22/share/gpaw/Cl.PBE.gz
  compensation charges: gauss, rc=0.25, lmax=2
  cutoffs: 1.40(filt), 1.49(core),
  valence states:
                energy  radius
    3s(2.00)   -20.689   0.794
    3p(5.00)    -8.594   0.794
    *s           6.523   0.794
    *p          18.617   0.794
    *d           0.000   0.794

  LCAO basis set for Cl:
    Name: dzp
    File: /groups/kemi/thorkong/miniconda3/envs/gpaw22/share/gpaw/Cl.dzp.basis.gz
    Number of radial functions: 5
    Number of spherical harmonics: 13
      l=0, rc=5.1719 Bohr: 3s-sz confined orbital
      l=1, rc=6.2656 Bohr: 3p-sz confined orbital
      l=0, rc=2.8281 Bohr: 3s-dz split-valence wave
      l=1, rc=3.5156 Bohr: 3p-dz split-valence wave
      l=2, rc=6.2656 Bohr: d-type Gaussian polarization

Reference energy: -2481378.197003

Spin-paired calculation

Convergence criteria:
 Maximum [total energy] change in last 3 cyles: 0.0005 eV / electron
 Maximum integral of absolute [dens]ity change: 0.0001 electrons / valence electron
 Maximum integral of absolute [eigenst]ate change: 4e-08 eV^2 / valence electron
 Maximum number of scf [iter]ations: 333
 (Square brackets indicate name in SCF output, whereas a 'c' in
 the SCF output indicates the quantity has converged.)

Symmetries present (total): 1

  ( 1  0  0)
  ( 0  1  0)
  ( 0  0  1)

16 k-points: 4 x 4 x 1 Monkhorst-Pack grid
8 k-points in the irreducible part of the Brillouin zone
       k-points in crystal coordinates                weights
   0:     0.12500000   -0.37500000    0.00000000          2/16
   1:     0.12500000   -0.12500000    0.00000000          2/16
   2:     0.12500000    0.12500000    0.00000000          2/16
   3:     0.12500000    0.37500000    0.00000000          2/16
   4:     0.37500000   -0.37500000    0.00000000          2/16
   5:     0.37500000   -0.12500000    0.00000000          2/16
   6:     0.37500000    0.12500000    0.00000000          2/16
   7:     0.37500000    0.37500000    0.00000000          2/16

Wave functions: Plane wave expansion
  Cutoff energy: 600.000 eV
  Number of coefficients (min, max): 54614, 54705
  Pulay-stress correction: 0.000000 eV/Ang^3 (de/decut=0.000000)
  Using FFTW library
  ScaLapack parameters: grid=2x2, blocksize=64
  Wavefunction extrapolation:
    Improved wavefunction reuse through dual PAW basis

Occupation numbers: Fermi-Dirac: width=0.1000 eV

Eigensolver
   Davidson(niter=2)

Densities:
  Coarse grid: 45*45*175 grid
  Fine grid: 90*90*350 grid
  Total Charge: 0.000000

Density mixing:
  Method: separate
  Backend: pulay
  Linear mixing parameter: 0.05
  Mixing with 5 old densities
  Damping of long wave oscillations: 50

Hamiltonian:
  XC and Coulomb potentials evaluated on a 90*90*350 grid
  Using the BEEF-vdW Exchange-Correlation functional
  External potential:
    NoExternalPotential

XC parameters: BEEF-vdW with 2 nearest neighbor stencil

Total number of cores used: 32
Parallelization over k-points: 8
Domain decomposition: 1 x 1 x 4
                      2 x 2 x 8 (xc only)

Number of atoms: 58
Number of atomic orbitals: 862
Number of bands in calculation: 378
Number of valence electrons: 622
Bands to converge: occupied

... initialized

Initializing position-dependent things.

Density initialized from atomic densities
Creating initial wave functions:
  378 bands from LCAO basis set

                                 Cl
                      Cl

                        Cu    Cu     Cu
                   Cu     Cu    Cu
               Cu    Cu     Cu
                    Cu     Cu    Cu
                Cu    Cu    Cu
           Cu    Cu     Cu
                Cu     Cu    Cu
            Cu    Cu     Cu
       Cu     Cu    Cu  Cu    Cu     Cu
                   Cu     Cu    Cu
               Cu    Cu     Cu
                    Cu     Cu    Cu
                Cu    Cu    Cu
           Cu    Cu     Cu
                Cu     Cu    Cu
            Cu    Cu     Cu
       Cu     Cu    Cu

[...]

Positions:
   0 Cu     2.919210   -0.014911   10.030662    ( 0.0000,  0.0000,  0.0000)
   1 Cu     4.168920    2.247074    9.988517    ( 0.0000,  0.0000,  0.0000)
   2 Cu     0.252920   -0.013828   10.032887    ( 0.0000,  0.0000,  0.0000)
   3 Cu     1.585130    2.295790   10.030651    ( 0.0000,  0.0000,  0.0000)
   4 Cu     2.898596    3.028807   12.145638    ( 0.0000,  0.0000,  0.0000)
   5 Cu     1.586075    0.755898   12.160209    ( 0.0000,  0.0000,  0.0000)
   6 Cu     5.512236    3.022663   12.135698    ( 0.0000,  0.0000,  0.0000)
   7 Cu     4.210731    0.756118   12.145644    ( 0.0000,  0.0000,  0.0000)
   8 Cu     5.510754    1.508860   14.275512    ( 0.0000,  0.0000,  0.0000)
   9 Cu     6.820552    3.778029   14.277375    ( 0.0000,  0.0000,  0.0000)
  10 Cu     2.896761    1.512628   14.275343    ( 0.0000,  0.0000,  0.0000)
  11 Cu     4.200498    3.778293   14.275510    ( 0.0000,  0.0000,  0.0000)
  12 Cu     2.888624    0.003058   16.411485    ( 0.0000,  0.0000,  0.0000)
  13 Cu     4.201161    2.265723   16.406569    ( 0.0000,  0.0000,  0.0000)
  14 Cu     0.282240    0.003134   16.411259    ( 0.0000,  0.0000,  0.0000)
  15 Cu     1.585366    2.260362   16.411482    ( 0.0000,  0.0000,  0.0000)
  16 Cu     2.895255    3.015637   18.537104    ( 0.0000,  0.0000,  0.0000)
  17 Cu     1.582367    0.753759   18.586541    ( 0.0000,  0.0000,  0.0000)
  18 Cu     5.509476    3.021067   18.548476    ( 0.0000,  0.0000,  0.0000)
  19 Cu     4.197656    0.759807   18.537108    ( 0.0000,  0.0000,  0.0000)
  20 Cu     5.510714    1.474183   20.692042    ( 0.0000,  0.0000,  0.0000)
  21 Cu     6.852971    3.796718   20.695496    ( 0.0000,  0.0000,  0.0000)
  22 Cu     2.899789    1.514346   20.710442    ( 0.0000,  0.0000,  0.0000)
  23 Cu     4.170515    3.795530   20.692038    ( 0.0000,  0.0000,  0.0000)
  24 Cu     5.511065    4.569472    9.991964    ( 0.0000,  0.0000,  0.0000)
  25 Cu     2.900782    4.530719    9.963744    ( 0.0000,  0.0000,  0.0000)
  26 Cu     4.199991    5.284793   12.146929    ( 0.0000,  0.0000,  0.0000)
  27 Cu     6.824069    5.283910   12.146912    ( 0.0000,  0.0000,  0.0000)
  28 Cu     8.133033    6.040699   14.272487    ( 0.0000,  0.0000,  0.0000)
  29 Cu     5.510979    6.039670   14.276776    ( 0.0000,  0.0000,  0.0000)
  30 Cu     5.510935    4.534842   16.408441    ( 0.0000,  0.0000,  0.0000)
  31 Cu     2.897219    4.530686   16.407218    ( 0.0000,  0.0000,  0.0000)
  32 Cu     4.206489    5.288571   18.537074    ( 0.0000,  0.0000,  0.0000)
  33 Cu     6.810998    5.287615   18.538368    ( 0.0000,  0.0000,  0.0000)
  34 Cu     8.102519    6.058701   20.653342    ( 0.0000,  0.0000,  0.0000)
  35 Cu     5.509215    6.036640   20.720246    ( 0.0000,  0.0000,  0.0000)
  36 Cu     5.512534    0.007031    9.963741    ( 0.0000,  0.0000,  0.0000)
  37 Cu     6.851254    2.248203    9.991965    ( 0.0000,  0.0000,  0.0000)
  38 Cu     8.126448    3.028130   12.146907    ( 0.0000,  0.0000,  0.0000)
  39 Cu     6.815171    0.755164   12.146930    ( 0.0000,  0.0000,  0.0000)
  40 Cu     8.124402    1.513086   14.276772    ( 0.0000,  0.0000,  0.0000)
  41 Cu     9.436324    3.783334   14.272484    ( 0.0000,  0.0000,  0.0000)
  42 Cu     5.510707    0.003995   16.407220    ( 0.0000,  0.0000,  0.0000)
  43 Cu     6.821162    2.265463   16.408439    ( 0.0000,  0.0000,  0.0000)
  44 Cu     8.123119    3.014955   18.538366    ( 0.0000,  0.0000,  0.0000)
  45 Cu     6.821693    0.758902   18.537075    ( 0.0000,  0.0000,  0.0000)
  46 Cu     8.120908    1.513039   20.720254    ( 0.0000,  0.0000,  0.0000)
  47 Cu     9.436697    3.747833   20.653337    ( 0.0000,  0.0000,  0.0000)
  48 Cu     8.122016    4.529407    9.973545    ( 0.0000,  0.0000,  0.0000)
  49 Cu     9.439320    5.289971   12.097670    ( 0.0000,  0.0000,  0.0000)
  50 Cu    10.739485    6.040625   14.272720    ( 0.0000,  0.0000,  0.0000)
  51 Cu     8.124982    4.531141   16.408672    ( 0.0000,  0.0000,  0.0000)
  52 Cu     9.435632    5.287837   18.523871    ( 0.0000,  0.0000,  0.0000)
  53 Cu    10.768985    6.057613   20.651091    ( 0.0000,  0.0000,  0.0000)
  54 Cl     5.514897    3.024120   22.988624    ( 0.0000,  0.0000,  0.0000)
  55 Cl     5.507024    3.019591    7.695354    ( 0.0000,  0.0000,  0.0000)
  56 Cl     9.439810    5.290178   22.964300    ( 0.0000,  0.0000,  0.0000)
  57 Cl     1.582080    0.753531    7.719852    ( 0.0000,  0.0000,  0.0000)

Unit cell:
           periodic     x           y           z      points  spacing
  1. axis:    yes    7.851007    0.000000    0.000000    45     0.1511
  2. axis:    yes    3.925503    6.799171    0.000000    45     0.1511
  3. axis:    yes    0.000000    0.000000   30.683867   175     0.1753

  Lengths:   7.851007   7.851006  30.683867
  Angles:   90.000000  90.000000  60.000001

Effective grid spacing dv^(1/3) = 0.1666

     iter     time        total  log10-change:
                         energy  eigst   dens
iter:   1 21:50:19 -4325.080214
iter:   2 21:51:07 -4304.837540  -0.09  -1.00
iter:   3 21:51:50 -4266.427759  -0.53  -1.13
iter:   4 21:52:33 -4242.836573  -1.55  -1.28
iter:   5 21:53:15 -4237.266680  -1.60  -1.43
iter:   6 21:53:59 -4237.274269  -1.79  -1.55
iter:   7 21:54:41 -4242.341298  -1.63  -1.69
iter:   8 21:55:24 -4238.144425  -2.13  -1.82
iter:   9 21:56:07 -4236.485182  -2.73  -1.90
iter:  10 21:57:00 -4235.826971  -2.54  -2.05
iter:  11 21:57:59 -4235.523234  -2.97  -2.21
iter:  12 21:58:55 -4235.532292c -3.64  -2.66
iter:  13 21:59:43 -4235.520521c -4.25  -2.77
iter:  14 22:00:26 -4235.507365c -3.62  -2.87
iter:  15 22:01:13 -4235.504405c -4.10  -3.04
iter:  16 22:01:56 -4235.498232c -5.07  -3.22
iter:  17 22:02:43 -4235.493174c -4.19  -3.27
iter:  18 22:03:29 -4235.492831c -4.85  -3.51
iter:  19 22:04:15 -4235.492981c -5.95  -3.60
iter:  20 22:05:07 -4235.492767c -6.22  -3.59
iter:  21 22:06:00 -4235.492441c -5.91  -3.59
iter:  22 22:06:44 -4235.492245c -5.89  -3.65
iter:  23 22:07:40 -4235.491982c -5.88  -3.72
iter:  24 22:08:24 -4235.491935c -6.17  -3.94
iter:  25 22:09:07 -4235.491924c -6.79  -4.13c
iter:  26 22:09:50 -4235.491950c -6.93  -4.22c
iter:  27 22:10:34 -4235.491918c -7.27  -4.25c
iter:  28 22:11:17 -4235.491912c -7.17  -4.34c
iter:  29 22:12:00 -4235.491916c -7.37  -4.46c
iter:  30 22:12:57 -4235.491924c -7.79c -4.55c

Converged after 30 iterations.

Dipole moment: (-11.700605, -3.462954, -0.000581) |e|*Ang

Energy contributions relative to reference atoms: (reference = -2481378.197003)

Kinetic:       +390.374373
Potential:     -437.647786
External:        +0.000000
XC:            -4187.098840
Entropy (-ST):   -0.543760
Local:           -0.847791
Free energy:   -4235.763804
Extrapolated:  -4235.491924

Showing only first 2 kpts
 Kpt  Band  Eigenvalues  Occupancy
  0   309     -0.45301    1.25133
  0   310     -0.37952    0.88982
  0   311     -0.31828    0.60572
  0   312     -0.14054    0.13686

  1   309     -0.99600    1.99477
  1   310     -0.87817    1.98310
  1   311     -0.56846    1.68265
  1   312     -0.48624    1.39943

Fermi level: -0.40165

No gap

Forces in eV/Ang:
  0 Cu   -0.20318    0.11043   -0.42043
  1 Cu    0.31919    0.18432   -0.34677
  2 Cu    0.20700    0.11956   -0.42561
  3 Cu   -0.00599   -0.23105   -0.42039
  4 Cu    0.02765   -0.07703   -0.17608
  5 Cu    0.00304    0.00181   -0.08010
  6 Cu   -0.00016   -0.00003   -0.07423
  7 Cu   -0.05292    0.06253   -0.17608
  8 Cu    0.01223    0.02364   -0.01309
  9 Cu   -0.02035   -0.01170   -0.01528
 10 Cu   -0.04282   -0.02467    0.01803
 11 Cu    0.02654   -0.00115   -0.01309
 12 Cu    0.01110   -0.01874    0.07144
 13 Cu    0.02024    0.01173    0.01618
 14 Cu   -0.01968   -0.01131    0.06967
 15 Cu   -0.01072    0.01906    0.07143
 16 Cu    0.02712    0.08049    0.17222
 17 Cu    0.00276    0.00164   -0.03674
 18 Cu    0.00006    0.00009    0.07442
 19 Cu    0.08324   -0.01672    0.17223
 20 Cu    0.00165    0.35084    0.33836
 21 Cu   -0.31933   -0.18433    0.34733
 22 Cu   -0.10641   -0.06140   -0.16165
 23 Cu    0.30455   -0.17390    0.33834
 24 Cu   -0.00166   -0.35081   -0.33781
 25 Cu   -0.10345    0.05333    0.18085
 26 Cu    0.08898    0.00801   -0.17479
 27 Cu   -0.08366    0.01701   -0.17203
 28 Cu   -0.01119    0.01863   -0.07077
 29 Cu    0.00746    0.04804    0.01829
 30 Cu   -0.01246   -0.02375    0.01388
 31 Cu   -0.04514    0.01724   -0.01787
 32 Cu   -0.05102   -0.07312    0.17502
 33 Cu    0.05248   -0.06239    0.17638
 34 Cu    0.20331   -0.11061    0.42101
 35 Cu    0.00560    0.11641   -0.17979
 36 Cu   -0.00558   -0.11618    0.18085
 37 Cu   -0.30473    0.17406   -0.33783
 38 Cu   -0.02713   -0.08091   -0.17204
 39 Cu    0.05140    0.07313   -0.17481
 40 Cu    0.04530   -0.01749    0.01831
 41 Cu    0.01050   -0.01892   -0.07078
 42 Cu   -0.00769   -0.04764   -0.01786
 43 Cu   -0.02684    0.00114    0.01389
 44 Cu   -0.02783    0.07670    0.17637
 45 Cu   -0.08886   -0.00757    0.17503
 46 Cu    0.10358   -0.05330   -0.17981
 47 Cu    0.00584    0.23145    0.42107
 48 Cu    0.10607    0.06128    0.16268
 49 Cu   -0.00275   -0.00153    0.03677
 50 Cu    0.01937    0.01123   -0.06917
 51 Cu    0.04228    0.02446   -0.01770
 52 Cu   -0.00320   -0.00180    0.08106
 53 Cu   -0.20754   -0.11980    0.42636
 54 Cl    0.00090    0.00057   -1.41591
 55 Cl   -0.00100   -0.00056    1.41405
 56 Cl   -0.00042   -0.00020   -1.40710
 57 Cl    0.00033    0.00021    1.40502

System changes: positions

[...]

Density initialized from wave functions

                                 Cl
                      Cl
                        Cu    Cu     Cu

                   Cu     Cu    Cu
               Cu   CCu    CCu   Cu

[...]

            Cu    Cu    CCu   Cu     Cu
       Cu     Cu   CCu    Cu    Cu

               Cu   CCu    CCu   Cu
                Cu    Cu    Cu

[...]

       Cu     Cu    Cu
                      Cl
           Cl

[...]

               Cu   CCu    CCu   Cu
                Cu          Cu
                      Cu
           Cu   CCu    CCu   Cu

[...]

               Cu   CCu    CCu   Cu
                      Cu
                Cu          Cu
           Cu   CCu    CCu   Cu

[...]

               Cu   CCu    CCu   Cu

                Cu    Cu    Cu
           Cu   CCu    CCu   Cu

[...]

               Cu   CCu    CCu   Cu
                Cu    Cu    Cu

           Cu   CCu    CCu   Cu

[...]

                      ClCu    Cu     Cu
                   Cu     Cu    Cu

[...]

            Cu    Cu     Cu
       Cu     Cu    CuCl

           Cl

[...]

System changes: positions

Initializing position-dependent things.

Density initialized from wave functions

                                 Cl
                      Cl
                        Cu    Cu     Cu
                   Cu     Cu    Cu

               Cu   CCu    CCu   Cu
                Cu          Cu
                      Cu
           Cu   CCu    CCu   Cu

            Cu    Cu    CCu   Cu     Cu
       Cu     Cu   CCu    Cu    Cu

               Cu   CCu    CCu   Cu
                      Cu
                Cu          Cu
           Cu   CCu    CCu   Cu

            Cu    Cu     Cu
       Cu     Cu    Cu
                      Cl
           Cl

Positions:
   0 Cu     2.931086   -0.020314    9.978213    ( 0.0000,  0.0000,  0.0000)
   1 Cu     4.193942    2.261597   10.000831    ( 0.0000,  0.0000,  0.0000)
   2 Cu     0.245620   -0.017968    9.982187    ( 0.0000,  0.0000,  0.0000)
   3 Cu     1.586325    2.308894    9.978202    ( 0.0000,  0.0000,  0.0000)
   4 Cu     2.899884    3.007821   12.118362    ( 0.0000,  0.0000,  0.0000)
   5 Cu     1.588509    0.757383   12.126284    ( 0.0000,  0.0000,  0.0000)
   6 Cu     5.514056    3.023807   12.151417    ( 0.0000,  0.0000,  0.0000)
   7 Cu     4.193150    0.767838   12.118362    ( 0.0000,  0.0000,  0.0000)
   8 Cu     5.514463    1.507488   14.270819    ( 0.0000,  0.0000,  0.0000)
   9 Cu     6.824996    3.780689   14.271985    ( 0.0000,  0.0000,  0.0000)
  10 Cu     2.890076    1.508858   14.273204    ( 0.0000,  0.0000,  0.0000)
  11 Cu     4.201076    3.782337   14.270821    ( 0.0000,  0.0000,  0.0000)
  12 Cu     2.896396   -0.006279   16.419997    ( 0.0000,  0.0000,  0.0000)
  13 Cu     4.196365    2.263043   16.413164    ( 0.0000,  0.0000,  0.0000)
  14 Cu     0.268524   -0.004699   16.418411    ( 0.0000,  0.0000,  0.0000)
  15 Cu     1.581093    2.271896   16.420000    ( 0.0000,  0.0000,  0.0000)
  16 Cu     2.891883    3.035677   18.565645    ( 0.0000,  0.0000,  0.0000)
  17 Cu     1.581022    0.753051   18.505597    ( 0.0000,  0.0000,  0.0000)
  18 Cu     5.507451    3.019977   18.533497    ( 0.0000,  0.0000,  0.0000)
  19 Cu     4.213269    0.746964   18.565637    ( 0.0000,  0.0000,  0.0000)
  20 Cu     5.508630    1.496579   20.678565    ( 0.0000,  0.0000,  0.0000)
  21 Cu     6.827737    3.782219   20.683599    ( 0.0000,  0.0000,  0.0000)
  22 Cu     2.864968    1.494298   20.623399    ( 0.0000,  0.0000,  0.0000)
  23 Cu     4.188775    3.782652   20.678572    ( 0.0000,  0.0000,  0.0000)
  24 Cu     5.513007    4.547161   10.005865    ( 0.0000,  0.0000,  0.0000)
  25 Cu     2.870627    4.549129   10.059574    ( 0.0000,  0.0000,  0.0000)
  26 Cu     4.220791    5.296745   12.120520    ( 0.0000,  0.0000,  0.0000)
  27 Cu     6.808126    5.296866   12.119443    ( 0.0000,  0.0000,  0.0000)
  28 Cu     8.124880    6.050059   14.265393    ( 0.0000,  0.0000,  0.0000)
  29 Cu     5.514286    6.050083   14.273935    ( 0.0000,  0.0000,  0.0000)
  30 Cu     5.506891    4.536233   16.414333    ( 0.0000,  0.0000,  0.0000)
  31 Cu     2.886349    4.532872   16.411331    ( 0.0000,  0.0000,  0.0000)
  32 Cu     4.185823    5.276550   18.564568    ( 0.0000,  0.0000,  0.0000)
  33 Cu     6.828244    5.276018   18.566725    ( 0.0000,  0.0000,  0.0000)
  34 Cu     8.090430    6.064176   20.706405    ( 0.0000,  0.0000,  0.0000)
  35 Cu     5.508296    6.072096   20.625760    ( 0.0000,  0.0000,  0.0000)
  36 Cu     5.513345   -0.028217   10.059572    ( 0.0000,  0.0000,  0.0000)
  37 Cu     6.832826    2.261164   10.005872    ( 0.0000,  0.0000,  0.0000)
  38 Cu     8.129624    3.007948   12.119442    ( 0.0000,  0.0000,  0.0000)
  39 Cu     6.835847    0.767327   12.120519    ( 0.0000,  0.0000,  0.0000)
  40 Cu     8.134994    1.510881   14.273939    ( 0.0000,  0.0000,  0.0000)
  41 Cu     9.440270    3.771729   14.265395    ( 0.0000,  0.0000,  0.0000)
  42 Cu     5.507087   -0.006378   16.411325    ( 0.0000,  0.0000,  0.0000)
  43 Cu     6.820270    2.261397   16.414334    ( 0.0000,  0.0000,  0.0000)
  44 Cu     8.121642    3.035787   18.566726    ( 0.0000,  0.0000,  0.0000)
  45 Cu     6.800889    0.747116   18.564561    ( 0.0000,  0.0000,  0.0000)
  46 Cu     8.151106    1.494598   20.625753    ( 0.0000,  0.0000,  0.0000)
  47 Cu     9.435321    3.734712   20.706411    ( 0.0000,  0.0000,  0.0000)
  48 Cu     8.156613    4.549446   10.061907    ( 0.0000,  0.0000,  0.0000)
  49 Cu     9.440498    5.290725   12.180190    ( 0.0000,  0.0000,  0.0000)
  50 Cu    10.752937    6.048488   14.266988    ( 0.0000,  0.0000,  0.0000)
  51 Cu     8.131302    4.534879   16.412062    ( 0.0000,  0.0000,  0.0000)
  52 Cu     9.433017    5.286396   18.558893    ( 0.0000,  0.0000,  0.0000)
  53 Cu    10.776181    6.061851   20.702410    ( 0.0000,  0.0000,  0.0000)
  54 Cl     5.507731    3.020079   22.588725    ( 0.0000,  0.0000,  0.0000)
  55 Cl     5.514013    3.023687    8.095544    ( 0.0000,  0.0000,  0.0000)
  56 Cl     9.436700    5.288453   22.595111    ( 0.0000,  0.0000,  0.0000)
  57 Cl     1.585011    0.755298    8.089330    ( 0.0000,  0.0000,  0.0000)

Unit cell:
           periodic     x           y           z      points  spacing
  1. axis:    yes    7.851007    0.000000    0.000000    45     0.1511
  2. axis:    yes    3.925503    6.799171    0.000000    45     0.1511
  3. axis:    yes    0.000000    0.000000   30.683867   175     0.1753

  Lengths:   7.851007   7.851006  30.683867
  Angles:   90.000000  90.000000  60.000001

Effective grid spacing dv^(1/3) = 0.1666

     iter     time        total  log10-change:
                         energy  eigst   dens
iter:   1 00:37:44 -4236.991150  -4.21
iter:   2 00:38:27 -4236.989621  -5.24  -3.59
iter:   3 00:39:09 -4236.989716c -5.62  -3.63
iter:   4 00:39:53 -4236.988555c -5.78  -3.63
iter:   5 00:40:35 -4236.988232c -5.66  -3.86
iter:   6 00:41:24 -4236.988190c -5.96  -4.18c
iter:   7 00:42:07 -4236.988205c -6.75  -4.44c
iter:   8 00:42:50 -4236.988129c -6.59  -4.56c
iter:   9 00:43:33 -4236.988125c -7.22  -4.68c
iter:  10 00:44:16 -4236.988127c -8.25c -4.78c

Converged after 10 iterations.

Dipole moment: (-8.007584, -0.442378, 0.000047) |e|*Ang

Energy contributions relative to reference atoms: (reference = -2481378.197003)

Kinetic:       +415.129990
Potential:     -457.139175
External:        +0.000000
XC:            -4193.990783
Entropy (-ST):   -0.530187
Local:           -0.723065
Free energy:   -4237.253221
Extrapolated:  -4236.988127

Showing only first 2 kpts
 Kpt  Band  Eigenvalues  Occupancy
  0   309      0.11420    1.34540
  0   310      0.17778    1.04228
  0   311      0.27819    0.57013
  0   312      0.44595    0.13866

  1   309     -0.37307    1.99258
  1   310     -0.25321    1.97561
  1   311      0.06049    1.55720
  1   312      0.13578    1.24711

Fermi level: 0.18624

No gap

Forces in eV/Ang:
  0 Cu   -0.00030    0.00143    0.01029
  1 Cu    0.00243    0.00144    0.00612
  2 Cu    0.00252    0.00147    0.00977
  3 Cu    0.00108   -0.00091    0.01029
  4 Cu    0.00174   -0.00030   -0.00473
  5 Cu    0.00052    0.00034   -0.00583
  6 Cu    0.00073    0.00046   -0.00891
  7 Cu    0.00057    0.00171   -0.00473
  8 Cu   -0.00006    0.00548   -0.00182
  9 Cu   -0.00483   -0.00275   -0.00094
 10 Cu   -0.00010   -0.00002    0.00709
 11 Cu    0.00470   -0.00274   -0.00183
 12 Cu   -0.00122    0.00081    0.00259
 13 Cu    0.00485    0.00283    0.00097
 14 Cu    0.00079    0.00048    0.00260
 15 Cu    0.00006   -0.00141    0.00258
 16 Cu    0.00023    0.00069    0.00406
 17 Cu   -0.00059   -0.00031   -0.01289
 18 Cu   -0.00093   -0.00051    0.00887
 19 Cu    0.00068   -0.00009    0.00408
 20 Cu   -0.00162    0.00049   -0.00431
 21 Cu   -0.00232   -0.00131   -0.00444
 22 Cu   -0.00132   -0.00074   -0.00349
 23 Cu   -0.00041   -0.00160   -0.00433
 24 Cu    0.00149   -0.00073    0.00598
 25 Cu    0.00004    0.00120    0.00466
 26 Cu    0.00144    0.00035   -0.00468
 27 Cu   -0.00023   -0.00000   -0.00448
 28 Cu    0.00119   -0.00083   -0.00282
 29 Cu   -0.00018    0.00041    0.00728
 30 Cu    0.00001   -0.00552    0.00172
 31 Cu   -0.00004    0.00011   -0.00688
 32 Cu   -0.00156   -0.00155    0.00429
 33 Cu   -0.00017   -0.00215    0.00432
 34 Cu    0.00081   -0.00173   -0.00868
 35 Cu   -0.00111   -0.00025   -0.00347
 36 Cu    0.00104   -0.00053    0.00467
 37 Cu    0.00009    0.00170    0.00598
 38 Cu   -0.00015   -0.00014   -0.00448
 39 Cu    0.00100    0.00112   -0.00469
 40 Cu    0.00024   -0.00031    0.00728
 41 Cu   -0.00014    0.00150   -0.00283
 42 Cu    0.00004   -0.00005   -0.00687
 43 Cu   -0.00481    0.00281    0.00172
 44 Cu   -0.00198    0.00098    0.00431
 45 Cu   -0.00214   -0.00052    0.00429
 46 Cu   -0.00079   -0.00081   -0.00346
 47 Cu   -0.00111    0.00163   -0.00869
 48 Cu    0.00196    0.00115    0.00472
 49 Cu    0.00050    0.00032    0.01096
 50 Cu   -0.00084   -0.00046   -0.00288
 51 Cu   -0.00022   -0.00009   -0.00672
 52 Cu   -0.00073   -0.00038    0.00591
 53 Cu   -0.00322   -0.00184   -0.00816
 54 Cl   -0.00186   -0.00104    0.00526
 55 Cl    0.00178    0.00106   -0.00380
 56 Cl   -0.00137   -0.00076   -0.02313
 57 Cl    0.00127    0.00076    0.02320