User:   thorkong@node029.cluster
Date:   Sat Oct  8 22:11:37 2022
Arch:   x86_64
Pid:    25095
Python: 3.10.5
gpaw:   /groups/kemi/thorkong/miniconda3/envs/gpaw22/lib/python3.10/site-packages/gpaw
_gpaw:  /groups/kemi/thorkong/miniconda3/envs/gpaw22/lib/python3.10/site-packages/
        _gpaw.cpython-310-x86_64-linux-gnu.so
ase:    /groups/kemi/thorkong/miniconda3/envs/gpaw22/lib/python3.10/site-packages/ase (version 3.22.1)
numpy:  /groups/kemi/thorkong/miniconda3/envs/gpaw22/lib/python3.10/site-packages/numpy (version 1.23.0)
scipy:  /groups/kemi/thorkong/miniconda3/envs/gpaw22/lib/python3.10/site-packages/scipy (version 1.8.1)
units:  Angstrom and eV
cores: 32
OpenMP: True
OMP_NUM_THREADS: 1

Input parameters:
  basis: dzp
  kpts: [4 4 1]
  mode: {ecut: 600.0,
         name: pw}
  xc: BEEF-vdW

System changes: positions, numbers, cell, pbc, initial_charges, initial_magmoms

Initialize ...

Cu-setup:
  name: Copper
  id: f1c4d45d90492f1bbfdcb091e8418fdf
  Z: 29.0
  valence: 11
  core: 18
  charge: 0.0
  file: /groups/kemi/thorkong/miniconda3/envs/gpaw22/share/gpaw/Cu.PBE.gz
  compensation charges: gauss, rc=0.33, lmax=2
  cutoffs: 2.06(filt), 2.43(core),
  valence states:
                energy  radius
    4s(1.00)    -4.609   1.164
    4p(0.00)    -0.698   1.164
    3d(10.00)    -5.039   1.058
    *s          22.603   1.164
    *p          26.513   1.164
    *d          22.172   1.058

  LCAO basis set for Cu:
    Name: dzp
    File: /groups/kemi/thorkong/miniconda3/envs/gpaw22/share/gpaw/Cu.dzp.basis.gz
    Number of radial functions: 5
    Number of spherical harmonics: 15
      l=0, rc=8.9688 Bohr: 4s-sz confined orbital
      l=2, rc=5.1719 Bohr: 3d-sz confined orbital
      l=0, rc=5.3281 Bohr: 4s-dz split-valence wave
      l=2, rc=3.1406 Bohr: 3d-dz split-valence wave
      l=1, rc=8.9688 Bohr: p-type Gaussian polarization

Cl-setup:
  name: Chlorine
  id: 726897f06f34e53cf8e33b5885a02604
  Z: 17.0
  valence: 7
  core: 10
  charge: 0.0
  file: /groups/kemi/thorkong/miniconda3/envs/gpaw22/share/gpaw/Cl.PBE.gz
  compensation charges: gauss, rc=0.25, lmax=2
  cutoffs: 1.40(filt), 1.49(core),
  valence states:
                energy  radius
    3s(2.00)   -20.689   0.794
    3p(5.00)    -8.594   0.794
    *s           6.523   0.794
    *p          18.617   0.794
    *d           0.000   0.794

  LCAO basis set for Cl:
    Name: dzp
    File: /groups/kemi/thorkong/miniconda3/envs/gpaw22/share/gpaw/Cl.dzp.basis.gz
    Number of radial functions: 5
    Number of spherical harmonics: 13
      l=0, rc=5.1719 Bohr: 3s-sz confined orbital
      l=1, rc=6.2656 Bohr: 3p-sz confined orbital
      l=0, rc=2.8281 Bohr: 3s-dz split-valence wave
      l=1, rc=3.5156 Bohr: 3p-dz split-valence wave
      l=2, rc=6.2656 Bohr: d-type Gaussian polarization

Reference energy: -3291764.330143

Spin-paired calculation

Convergence criteria:
 Maximum [total energy] change in last 3 cyles: 0.0005 eV / electron
 Maximum integral of absolute [dens]ity change: 0.0001 electrons / valence electron
 Maximum integral of absolute [eigenst]ate change: 4e-08 eV^2 / valence electron
 Maximum number of scf [iter]ations: 333
 (Square brackets indicate name in SCF output, whereas a 'c' in
 the SCF output indicates the quantity has converged.)

Symmetries present (total): 1

  ( 1  0  0)
  ( 0  1  0)
  ( 0  0  1)

16 k-points: 4 x 4 x 1 Monkhorst-Pack grid
8 k-points in the irreducible part of the Brillouin zone
       k-points in crystal coordinates                weights
   0:     0.12500000   -0.37500000    0.00000000          2/16
   1:     0.12500000   -0.12500000    0.00000000          2/16
   2:     0.12500000    0.12500000    0.00000000          2/16
   3:     0.12500000    0.37500000    0.00000000          2/16
   4:     0.37500000   -0.37500000    0.00000000          2/16
   5:     0.37500000   -0.12500000    0.00000000          2/16
   6:     0.37500000    0.12500000    0.00000000          2/16
   7:     0.37500000    0.37500000    0.00000000          2/16

Wave functions: Plane wave expansion
  Cutoff energy: 600.000 eV
  Number of coefficients (min, max): 66642, 66743
  Pulay-stress correction: 0.000000 eV/Ang^3 (de/decut=0.000000)
  Using FFTW library
  ScaLapack parameters: grid=2x2, blocksize=64
  Wavefunction extrapolation:
    Improved wavefunction reuse through dual PAW basis

Occupation numbers: Fermi-Dirac: width=0.1000 eV

Eigensolver
   Davidson(niter=2)

Densities:
  Coarse grid: 45*42*196 grid
  Fine grid: 90*84*392 grid
  Total Charge: 0.000000

Density mixing:
  Method: separate
  Backend: pulay
  Linear mixing parameter: 0.05
  Mixing with 5 old densities
  Damping of long wave oscillations: 50

Hamiltonian:
  XC and Coulomb potentials evaluated on a 90*84*392 grid
  Using the BEEF-vdW Exchange-Correlation functional
  External potential:
    NoExternalPotential

XC parameters: BEEF-vdW with 2 nearest neighbor stencil

Total number of cores used: 32
Parallelization over k-points: 8
Domain decomposition: 1 x 1 x 4
                      2 x 2 x 8 (xc only)

Number of atoms: 76
Number of atomic orbitals: 1132
Number of bands in calculation: 496
Number of valence electrons: 820
Bands to converge: occupied

... initialized

Initializing position-dependent things.

Density initialized from atomic densities
Creating initial wave functions:
  496 bands from LCAO basis set

 |    |      Cl          |
 |  Cl|  Cu    Cu    Cu  |
 |    |Cu          Cu    |
 |  CuCu  CuCu   CuCu    |
 |    |  Cu    Cu    Cu  |
 |  CuCuCuCuCu   CuCu    |
 |    |  Cu  CuCu    Cu  |
 |Cu  CuCu  CuCu   Cu    |
 |  Cu|CuCuCu  CuCu  Cu  |
 |Cu  |       Cu         |
 |  CuCu CCuCu CuCuCuCu  |
 |    |Cu          Cu    |
 |    | Cu    Cu         |
 |  CuCu  CuCu CuCuCuCu  |
 |    |CuCu              |
 |  CuCuCuCuCu   CuCu    |
 |    |        Cl        |
 |    | Cu    Cu         |
 |    |            Cl    |

Positions:
   0 Cu     2.882963    0.029101   10.010504    ( 0.0000,  0.0000,  0.0000)
   1 Cu     1.573700    1.850859   11.244039    ( 0.0000,  0.0000,  0.0000)
   2 Cu     4.209593    1.851106   11.262118    ( 0.0000,  0.0000,  0.0000)
   3 Cu     0.286298   -0.026097   10.014365    ( 0.0000,  0.0000,  0.0000)
   4 Cu     0.279789   -0.016935   12.607489    ( 0.0000,  0.0000,  0.0000)
   5 Cu     4.205626    1.849917   13.913715    ( 0.0000,  0.0000,  0.0000)
   6 Cu     1.574419    1.850271   13.901176    ( 0.0000,  0.0000,  0.0000)
   7 Cu     2.891676    0.016781   12.600817    ( 0.0000,  0.0000,  0.0000)
   8 Cu     2.890232    0.005041   15.226873    ( 0.0000,  0.0000,  0.0000)
   9 Cu     1.583849    1.850498   16.537875    ( 0.0000,  0.0000,  0.0000)
  10 Cu     4.201371    1.849426   16.534981    ( 0.0000,  0.0000,  0.0000)
  11 Cu     0.280159   -0.004721   15.236843    ( 0.0000,  0.0000,  0.0000)
  12 Cu     0.275868    0.001060   17.858554    ( 0.0000,  0.0000,  0.0000)
  13 Cu     4.205609    1.855210   19.156702    ( 0.0000,  0.0000,  0.0000)
  14 Cu     1.587199    1.850341   19.155534    ( 0.0000,  0.0000,  0.0000)
  15 Cu     2.895551   -0.001508   17.852746    ( 0.0000,  0.0000,  0.0000)
  16 Cu     2.901770    0.000255   20.474962    ( 0.0000,  0.0000,  0.0000)
  17 Cu     1.585899    1.850627   21.773661    ( 0.0000,  0.0000,  0.0000)
  18 Cu     4.205287    1.867469   21.785946    ( 0.0000,  0.0000,  0.0000)
  19 Cu     0.280168    0.000581   20.479767    ( 0.0000,  0.0000,  0.0000)
  20 Cu     0.284003   -0.000607   23.131177    ( 0.0000,  0.0000,  0.0000)
  21 Cu     4.211749    1.876712   24.379002    ( 0.0000,  0.0000,  0.0000)
  22 Cu     1.586729    1.850211   24.384871    ( 0.0000,  0.0000,  0.0000)
  23 Cu     2.898451    0.000321   23.086663    ( 0.0000,  0.0000,  0.0000)
  24 Cu     2.885241    3.674850   10.014415    ( 0.0000,  0.0000,  0.0000)
  25 Cu     1.597704    5.551857   11.244009    ( 0.0000,  0.0000,  0.0000)
  26 Cu     4.198625    5.551182   11.306582    ( 0.0000,  0.0000,  0.0000)
  27 Cu     0.288571    3.730041   10.010456    ( 0.0000,  0.0000,  0.0000)
  28 Cu     0.279736    3.717781   12.600807    ( 0.0000,  0.0000,  0.0000)
  29 Cu     4.195001    5.551245   13.918453    ( 0.0000,  0.0000,  0.0000)
  30 Cu     1.596892    5.551266   13.901173    ( 0.0000,  0.0000,  0.0000)
  31 Cu     2.891633    3.684065   12.607498    ( 0.0000,  0.0000,  0.0000)
  32 Cu     2.891172    3.696276   15.236839    ( 0.0000,  0.0000,  0.0000)
  33 Cu     1.587385    5.551493   16.537877    ( 0.0000,  0.0000,  0.0000)
  34 Cu     4.201224    5.553022   16.540786    ( 0.0000,  0.0000,  0.0000)
  35 Cu     0.281085    3.706037   15.226875    ( 0.0000,  0.0000,  0.0000)
  36 Cu     0.275742    3.699490   17.852748    ( 0.0000,  0.0000,  0.0000)
  37 Cu     4.206523    5.546467   19.166649    ( 0.0000,  0.0000,  0.0000)
  38 Cu     1.584070    5.551338   19.155538    ( 0.0000,  0.0000,  0.0000)
  39 Cu     2.895430    3.702058   17.858554    ( 0.0000,  0.0000,  0.0000)
  40 Cu     2.891208    3.701578   20.479764    ( 0.0000,  0.0000,  0.0000)
  41 Cu     1.585480    5.551649   21.773663    ( 0.0000,  0.0000,  0.0000)
  42 Cu     4.205230    5.534686   21.792638    ( 0.0000,  0.0000,  0.0000)
  43 Cu     0.269603    3.701252   20.474978    ( 0.0000,  0.0000,  0.0000)
  44 Cu     0.273020    3.701319   23.086657    ( 0.0000,  0.0000,  0.0000)
  45 Cu     4.214018    5.522328   24.382926    ( 0.0000,  0.0000,  0.0000)
  46 Cu     1.584663    5.551205   24.384871    ( 0.0000,  0.0000,  0.0000)
  47 Cu     2.887415    3.700392   23.131168    ( 0.0000,  0.0000,  0.0000)
  48 Cu     6.823827    1.850181   11.306570    ( 0.0000,  0.0000,  0.0000)
  49 Cu     5.512330    0.000273   10.008383    ( 0.0000,  0.0000,  0.0000)
  50 Cu     5.511448   -0.000132   12.619874    ( 0.0000,  0.0000,  0.0000)
  51 Cu     6.827324    1.850242   13.918465    ( 0.0000,  0.0000,  0.0000)
  52 Cu     6.821015    1.852020   16.540788    ( 0.0000,  0.0000,  0.0000)
  53 Cu     5.512744    0.000158   15.238056    ( 0.0000,  0.0000,  0.0000)
  54 Cu     5.509408    0.000002   17.855704    ( 0.0000,  0.0000,  0.0000)
  55 Cu     6.815739    1.845462   19.166656    ( 0.0000,  0.0000,  0.0000)
  56 Cu     6.817110    1.833690   21.792639    ( 0.0000,  0.0000,  0.0000)
  57 Cu     5.500011    0.000230   20.492255    ( 0.0000,  0.0000,  0.0000)
  58 Cu     5.499162   -0.000362   23.149294    ( 0.0000,  0.0000,  0.0000)
  59 Cu     6.808349    1.821288   24.382893    ( 0.0000,  0.0000,  0.0000)
  60 Cu     6.812845    5.552106   11.262125    ( 0.0000,  0.0000,  0.0000)
  61 Cu     5.510252    3.701311   10.008382    ( 0.0000,  0.0000,  0.0000)
  62 Cu     5.511020    3.700854   12.619872    ( 0.0000,  0.0000,  0.0000)
  63 Cu     6.816705    5.550920   13.913714    ( 0.0000,  0.0000,  0.0000)
  64 Cu     6.820871    5.550428   16.534981    ( 0.0000,  0.0000,  0.0000)
  65 Cu     5.509594    3.701159   15.238052    ( 0.0000,  0.0000,  0.0000)
  66 Cu     5.512894    3.701006   17.855702    ( 0.0000,  0.0000,  0.0000)
  67 Cu     6.816666    5.556215   19.156711    ( 0.0000,  0.0000,  0.0000)
  68 Cu     6.817064    5.568466   21.785948    ( 0.0000,  0.0000,  0.0000)
[...]
 49 Cu   -0.00607   -0.00257   -0.26025
 50 Cu   -0.00074    0.00013   -0.19080
 51 Cu   -0.01078    0.00212    0.03302
 52 Cu    0.00991   -0.00912    0.02322
 53 Cu   -0.00413   -0.00200   -0.07971
 54 Cu   -0.00787   -0.00004   -0.02629
 55 Cu    0.01223    0.01115    0.04825
 56 Cu    0.01449    0.07226    0.09995
 57 Cu    0.04258   -0.00200   -0.06411
 58 Cu    0.17517   -0.00333   -0.06466
 59 Cu    0.07798    0.14877    0.07681
 60 Cu    0.08402    0.00099    0.10907
 61 Cu    0.00609   -0.00278   -0.26025
 62 Cu    0.00110    0.00018   -0.19080
 63 Cu    0.03025    0.00386    0.09293
 64 Cu   -0.00145    0.00813    0.09245
 65 Cu    0.00447   -0.00198   -0.07971
 66 Cu    0.00818   -0.00004   -0.02627
 67 Cu    0.01059   -0.00792    0.09900
 68 Cu    0.01378   -0.07216    0.12938
 69 Cu   -0.04225   -0.00200   -0.06405
 70 Cu   -0.17474   -0.00333   -0.06460
 71 Cu    0.06869   -0.13718    0.07604
 72 Cl   -0.00122   -0.00995   -0.50238
 73 Cl    0.00122   -0.00995   -0.50237
 74 Cl   -0.00057    0.01010    0.50694
 75 Cl    0.00055    0.01010    0.50696

System changes: positions

[...]

Density initialized from wave functions
 |    |      Cl          |
 |  Cl|  Cu    Cu    Cu  |
 |    |Cu          Cu    |
 |  CuCu   CCu   CuCu    |
 |    |  Cu    Cu    Cu  |
 |    CuCu  Cu   CuCu    |
 |  Cu|  CuCuCuCu  CuCu  |
 |Cu  CuCu  CuCu   Cu    |
 |  Cu|CuCuCu  CuCuCuCu  |
 |Cu  |                  |
 |  CuCu CCuCu CuCuCuCu  |
 |    |Cu          Cu    |
 |    | Cu               |
 |  CuCu  CuCu CuCuCuCu  |
 |    |CuCu              |
 |  CuCuCuCuCu   CuCu    |
 |    |        Cl        |
 |    | Cu    Cu         |
 |    |            Cl    |

[...]

     iter     time        total  log10-change:
                         energy  eigst   dens
iter:   1 23:05:34 -5601.152077  -2.46
iter:   2 23:06:56 -5600.788212  -2.58  -2.27
iter:   3 23:08:11 -5600.768057c -3.04  -2.41
iter:   4 23:09:28 -5600.078115  -3.57  -2.38
iter:   5 23:10:45 -5600.024274  -4.09  -2.88
iter:   6 23:12:05 -5600.019237c -4.40  -3.17
iter:   7 23:13:38 -5600.018142c -4.52  -3.28
iter:   8 23:14:51 -5600.016284c -5.45  -3.49
iter:   9 23:16:04 -5600.015360c -5.16  -3.63
iter:  10 23:17:36 -5600.016098c -5.75  -3.87
iter:  11 23:19:05 -5600.015237c -5.98  -3.74
iter:  12 23:20:30 -5600.015075c -5.94  -3.95
iter:  13 23:21:54 -5600.014988c -6.60  -4.23c
iter:  14 23:23:21 -5600.014928c -6.75  -4.28c
iter:  15 23:24:43 -5600.014951c -6.41  -4.38c
iter:  16 23:26:00 -5600.014957c -7.48c -4.64c

[...]

Density initialized from wave functions
 |    |      Cl          |
 |  Cl|  Cu    Cu    Cu  |
 |    |Cu          Cu    |
 |  CuCu   CCu   CuCu    |
 |    |CuCu  CuCu  CuCu  |
 |    CuCu  Cu   CuCu    |
 |  Cu|CuCuCu  Cu  CuCu  |
 |    Cu    Cu     Cu    |
 |  Cu|CuCuCu  CuCuCuCu  |
 |    | Cu               |
 |  CuCu CuCCu CuCuCuCu  |
 |    |      Cu    Cu    |
 |    | Cu               |
 |  CuCu   CCu CuCuCuCu  |
 |    |  Cu  Cu    Cu    |
 |CuCuCu   CCu   CuCu    |
 |    |        Cl        |
 |Cu  |            Cl    |

[...]

Density initialized from wave functions
 |    |      Cl          |
 |  Cl|  Cu    Cu    Cu  |
 |    |Cu          Cu    |
 |  CuCu   CCu   CuCu    |
 |    |CuCu  CuCu  CuCu  |
 |    CuCu  Cu   CuCu    |
 |  Cu|CuCuCu  Cu    Cu  |
 |    Cu    Cu     Cu    |
 |  Cu|CuCuCu  CuCuCuCu  |
 |    | Cu    Cu         |
 |  CuCu CuCCu CuCuCuCu  |
 |    |      Cu          |
 |    | Cu               |
 |  CuCu   CCu CuCuCuCu  |
 |    |  Cu  Cu    Cu    |
 |CuCuCu   CCuCu CuCu    |
 |    |        Cl        |
 |Cu  |            Cl    |

[...]

Density initialized from wave functions
 |    |      Cl          |
 |  Cl|  Cu    Cu    Cu  |
 |  CuCu   CCu   CuCu    |
 |    |  Cu  CuCu    Cu  |
 |CuCuCuCu CCuCu CuCu    |
 |    |CuCu    Cu    Cu  |
 |Cu  Cu    CuCu   Cu    |
 |  Cu|  CCu   CuCu  Cu  |
 |    | Cu    Cu         |
 |  CuCu CCuCu CuCuCuCu  |
 |    |      Cu          |
 |Cu  | Cu    Cu         |
 |  CuCu   CCu CuCuCuCu  |
 |    |  Cu  Cu    Cu    |
 |CuCuCu  CuCuCu CuCu    |
 |    |        Cl        |
 |Cu  |            Cl    |

[...]

Density initialized from wave functions
 |    |      Cl          |
 |  Cl|  Cu    Cu    Cu  |
 |    |Cu                |
 |  CuCu   CCu   CuCu    |
 |    |  Cu  CuCu  CuCu  |
 |  CuCuCu CCuCu CuCu    |
 |    |CuCu    Cu  CuCu  |
 |Cu  Cu    Cu     Cu    |
 |  Cu|CuCuCu  CuCuCuCu  |
 |    | Cu               |
 |  CuCu CuCCu CuCuCuCu  |
 |    |      Cu          |
 |    | Cu               |
 |  CuCu   CCu CuCuCuCu  |
 |    | Cu   Cu    Cu    |
 |CuCuCu  CuCuCu CuCu    |
 |    |        Cl        |
 |Cu  |            Cl    |

[...]

Density initialized from wave functions
 |    |      Cl          |
 |  Cl|  Cu    Cu    Cu  |
 |  CuCu   CCu   CuCu    |
 |    |  Cu  CuCu  CuCu  |
 |CuCuCuCu CCuCu CuCu    |
 |    |CuCu    Cu  CuCu  |
 |Cu  Cu    Cu     Cu    |
 |  Cu|CuCuCu  CuCuCuCu  |
 |    | Cu               |
 |  CuCu CuCCu CuCuCuCu  |
 |    |      Cu          |
 |    | Cu               |
 |  CuCu   CCu CuCuCuCu  |
 |    | Cu   Cu    Cu    |
 |CuCuCu   CCuCu CuCu    |
 |    |        Cl        |
 |Cu  |            Cl    |

[...]

Density initialized from wave functions
 |    |      Cl          |
 |  Cl|  Cu    Cu    Cu  |
 |  CuCu   CCu   CuCu    |
 |    |  Cu  CuCu  CuCu  |
 |Cu  CuCu CCuCu CuCu    |
 |  Cu|CuCu    Cu  CuCu  |
 |Cu  Cu    Cu     Cu    |
 |  Cu|CuCuCu  CuCuCuCu  |
 |    | Cu               |
 |  CuCu CuCCu CuCuCuCu  |
 |    |      Cu    Cu    |
 |    | Cu               |
 |  CuCu   CCu CuCuCuCu  |
 |    | Cu   Cu    Cu    |
 |CuCuCu   CCu   CuCu    |
 |    |        Cl        |
 |Cu  |            Cl    |

[...]

System changes: positions

Initializing position-dependent things.

Density initialized from wave functions
 |    |      Cl          |
 |  Cl|  Cu    Cu    Cu  |
 |  CuCu   CCu   CuCu    |
 |    |  Cu  CuCu  CuCu  |
 |Cu  CuCu CCuCu CuCu    |
 |  Cu|CuCu    Cu  CuCu  |
 |Cu  Cu    Cu     Cu    |
 |  Cu|CuCuCu  CuCu  Cu  |
 |    | Cu               |
 |  CuCu CuCCu CuCuCuCu  |
 |    |      Cu    Cu    |
 |    | Cu    Cu         |
 |  CuCu   CCu CuCuCuCu  |
 |    | Cu   Cu    Cu    |
 |CuCuCu   CCu   CuCu    |
 |    |        Cl        |
 |Cu  |            Cl    |

Positions:
   0 Cu     2.888058   -0.027669   10.011987    ( 0.0000,  0.0000,  0.0000)
   1 Cu     1.629251    1.849571   11.248112    ( 0.0000,  0.0000,  0.0000)
   2 Cu     4.186221    1.849995   11.266457    ( 0.0000,  0.0000,  0.0000)
   3 Cu     0.283588    0.024495   10.011993    ( 0.0000,  0.0000,  0.0000)
   4 Cu     0.279819    0.012299   12.582090    ( 0.0000,  0.0000,  0.0000)
   5 Cu     4.198573    1.850256   13.916244    ( 0.0000,  0.0000,  0.0000)
   6 Cu     1.591664    1.850643   13.904759    ( 0.0000,  0.0000,  0.0000)
   7 Cu     2.892516   -0.012966   12.587270    ( 0.0000,  0.0000,  0.0000)
   8 Cu     2.892553    0.000600   15.219531    ( 0.0000,  0.0000,  0.0000)
   9 Cu     1.583777    1.850531   16.540318    ( 0.0000,  0.0000,  0.0000)
  10 Cu     4.202893    1.851577   16.548985    ( 0.0000,  0.0000,  0.0000)
  11 Cu     0.278522   -0.000481   15.211543    ( 0.0000,  0.0000,  0.0000)
  12 Cu     0.277382   -0.001088   17.843474    ( 0.0000,  0.0000,  0.0000)
  13 Cu     4.203990    1.850906   19.180987    ( 0.0000,  0.0000,  0.0000)
  14 Cu     1.586074    1.850494   19.176336    ( 0.0000,  0.0000,  0.0000)
  15 Cu     2.895994    0.000906   17.852122    ( 0.0000,  0.0000,  0.0000)
  16 Cu     2.895066   -0.000742   20.469025    ( 0.0000,  0.0000,  0.0000)
  17 Cu     1.586149    1.850611   21.813317    ( 0.0000,  0.0000,  0.0000)
  18 Cu     4.205253    1.837948   21.810801    ( 0.0000,  0.0000,  0.0000)
  19 Cu     0.273018    0.000236   20.476483    ( 0.0000,  0.0000,  0.0000)
  20 Cu     0.260585    0.000492   23.126637    ( 0.0000,  0.0000,  0.0000)
  21 Cu     4.208674    1.825338   24.381050    ( 0.0000,  0.0000,  0.0000)
  22 Cu     1.586432    1.853310   24.417106    ( 0.0000,  0.0000,  0.0000)
  23 Cu     2.869096    0.002099   23.054976    ( 0.0000,  0.0000,  0.0000)
  24 Cu     2.888210    3.725549   10.011975    ( 0.0000,  0.0000,  0.0000)
  25 Cu     1.542477    5.550567   11.248152    ( 0.0000,  0.0000,  0.0000)
  26 Cu     4.227766    5.549395   11.338098    ( 0.0000,  0.0000,  0.0000)
  27 Cu     0.283734    3.673383   10.012005    ( 0.0000,  0.0000,  0.0000)
  28 Cu     0.279251    3.688044   12.587263    ( 0.0000,  0.0000,  0.0000)
  29 Cu     4.202071    5.552247   13.923750    ( 0.0000,  0.0000,  0.0000)
  30 Cu     1.579997    5.551641   13.904772    ( 0.0000,  0.0000,  0.0000)
  31 Cu     2.891957    3.713311   12.582099    ( 0.0000,  0.0000,  0.0000)
  32 Cu     2.893149    3.700516   15.211545    ( 0.0000,  0.0000,  0.0000)
  33 Cu     1.587787    5.551528   16.540317    ( 0.0000,  0.0000,  0.0000)
  34 Cu     4.201112    5.550606   16.540398    ( 0.0000,  0.0000,  0.0000)
  35 Cu     0.279108    3.701597   15.219530    ( 0.0000,  0.0000,  0.0000)
  36 Cu     0.275632    3.701904   17.852125    ( 0.0000,  0.0000,  0.0000)
  37 Cu     4.204564    5.550968   19.173092    ( 0.0000,  0.0000,  0.0000)
  38 Cu     1.585526    5.551491   19.176334    ( 0.0000,  0.0000,  0.0000)
  39 Cu     2.894254    3.699909   17.843471    ( 0.0000,  0.0000,  0.0000)
  40 Cu     2.898681    3.701235   20.476483    ( 0.0000,  0.0000,  0.0000)
  41 Cu     1.585497    5.551604   21.813317    ( 0.0000,  0.0000,  0.0000)
  42 Cu     4.204690    5.564701   21.805699    ( 0.0000,  0.0000,  0.0000)
  43 Cu     0.276645    3.700257   20.469028    ( 0.0000,  0.0000,  0.0000)
  44 Cu     0.302501    3.703095   23.055005    ( 0.0000,  0.0000,  0.0000)
  45 Cu     4.208823    5.579790   24.381069    ( 0.0000,  0.0000,  0.0000)
  46 Cu     1.584914    5.554374   24.417106    ( 0.0000,  0.0000,  0.0000)
  47 Cu     2.910954    3.701491   23.126705    ( 0.0000,  0.0000,  0.0000)
  48 Cu     6.794979    1.848391   11.338129    ( 0.0000,  0.0000,  0.0000)
  49 Cu     5.512132   -0.002781    9.976796    ( 0.0000,  0.0000,  0.0000)
  50 Cu     5.511718   -0.000118   12.579975    ( 0.0000,  0.0000,  0.0000)
  51 Cu     6.820604    1.851246   13.923751    ( 0.0000,  0.0000,  0.0000)
  52 Cu     6.821458    1.849604   16.540401    ( 0.0000,  0.0000,  0.0000)
  53 Cu     5.511624    0.000005   15.216491    ( 0.0000,  0.0000,  0.0000)
  54 Cu     5.509334   -0.000035   17.852377    ( 0.0000,  0.0000,  0.0000)
  55 Cu     6.818035    1.849966   19.173094    ( 0.0000,  0.0000,  0.0000)
  56 Cu     6.817944    1.863712   21.805699    ( 0.0000,  0.0000,  0.0000)
  57 Cu     5.517327   -0.000148   20.488152    ( 0.0000,  0.0000,  0.0000)
  58 Cu     5.555055    0.000925   23.145054    ( 0.0000,  0.0000,  0.0000)
  59 Cu     6.813631    1.878825   24.381073    ( 0.0000,  0.0000,  0.0000)
  60 Cu     6.836439    5.550996   11.266384    ( 0.0000,  0.0000,  0.0000)
  61 Cu     5.510593    3.698123    9.976796    ( 0.0000,  0.0000,  0.0000)
  62 Cu     5.511070    3.700890   12.579974    ( 0.0000,  0.0000,  0.0000)
  63 Cu     6.824092    5.551256   13.916243    ( 0.0000,  0.0000,  0.0000)
  64 Cu     6.819688    5.552579   16.548988    ( 0.0000,  0.0000,  0.0000)
  65 Cu     5.511053    3.701010   15.216492    ( 0.0000,  0.0000,  0.0000)
  66 Cu     5.513300    3.700969   17.852377    ( 0.0000,  0.0000,  0.0000)
  67 Cu     6.818619    5.551908   19.180987    ( 0.0000,  0.0000,  0.0000)
  68 Cu     6.817389    5.538935   21.810799    ( 0.0000,  0.0000,  0.0000)
  69 Cu     5.505383    3.700854   20.488139    ( 0.0000,  0.0000,  0.0000)
  70 Cu     5.467505    3.701929   23.145027    ( 0.0000,  0.0000,  0.0000)
  71 Cu     6.813785    5.526303   24.381053    ( 0.0000,  0.0000,  0.0000)
  72 Cl     0.288809    3.681406   25.905563    ( 0.0000,  0.0000,  0.0000)
  73 Cl     2.882387   -0.019593   25.905540    ( 0.0000,  0.0000,  0.0000)
  74 Cl     6.807157    1.870170    8.489242    ( 0.0000,  0.0000,  0.0000)
  75 Cl     4.215085    5.571169    8.489234    ( 0.0000,  0.0000,  0.0000)

Unit cell:
           periodic     x           y           z      points  spacing
  1. axis:    yes    7.851007    0.000000    0.000000    45     0.1745
  2. axis:    yes    0.000000    7.402000    0.000000    42     0.1762
  3. axis:    yes    0.000000    0.000000   34.393512   196     0.1755

  Lengths:   7.851007   7.402000  34.393512
  Angles:   90.000000  90.000000  90.000000

Effective grid spacing dv^(1/3) = 0.1754

     iter     time        total  log10-change:
                         energy  eigst   dens
iter:   1 01:23:56 -5600.150873  -4.18
iter:   2 01:25:11 -5600.214996  -4.19  -3.23
iter:   3 01:26:29 -5600.134772c -4.69  -2.87
iter:   4 01:27:57 -5600.134477c -5.92  -3.72
iter:   5 01:29:18 -5600.134303c -5.32  -3.82
iter:   6 01:30:47 -5600.134085c -6.48  -4.27c
iter:   7 01:32:19 -5600.134032c -6.55  -4.36c
iter:   8 01:34:07 -5600.134042c -6.98  -4.48c
iter:   9 01:35:26 -5600.134072c -7.10  -4.61c
iter:  10 01:36:50 -5600.134048c -7.69c -4.58c

Converged after 10 iterations.

Dipole moment: (-83.683009, 1.798475, -0.001126) |e|*Ang

Energy contributions relative to reference atoms: (reference = -3291764.330143)

Kinetic:       +536.162595
Potential:     -594.122329
External:        +0.000000
XC:            -5540.806780
Entropy (-ST):   -0.700983
Local:           -1.017042
Free energy:   -5600.484540
Extrapolated:  -5600.134048

Showing only first 2 kpts
 Kpt  Band  Eigenvalues  Occupancy
  0   408      0.62966    1.39645
  0   409      0.75268    0.80677
  0   410      0.82275    0.50245
  0   411      0.87702    0.32634

  1   408      0.37245    1.93609
  1   409      0.40715    1.91076
  1   410      0.45328    1.86206
  1   411      0.59206    1.54230

Fermi level: 0.71354

No gap

Forces in eV/Ang:
  0 Cu   -0.00532   -0.00318   -0.00145
  1 Cu   -0.00059   -0.00298    0.00046
  2 Cu    0.00539   -0.00233    0.00891
  3 Cu    0.00538   -0.00029    0.00293
  4 Cu    0.00448   -0.00298    0.01008
  5 Cu    0.00160   -0.00023    0.00734
  6 Cu   -0.00263   -0.00059    0.00397
  7 Cu   -0.00289    0.00198    0.00581
  8 Cu   -0.00053    0.00232    0.00174
  9 Cu   -0.00174    0.00009    0.00109
 10 Cu    0.00178    0.00060    0.00049
 11 Cu    0.00200   -0.00273    0.00504
 12 Cu    0.00165   -0.00063   -0.00265
 13 Cu    0.00222    0.00290   -0.00656
 14 Cu   -0.00099    0.00011   -0.00716
 15 Cu    0.00023    0.00060   -0.00702
 16 Cu    0.00107    0.00070   -0.00236
 17 Cu   -0.00142    0.00046   -0.00937
 18 Cu    0.00458    0.00331   -0.00941
 19 Cu    0.00142    0.00023   -0.00759
 20 Cu    0.00541    0.00235   -0.00770
 21 Cu    0.00565    0.00034   -0.00264
 22 Cu    0.00065    0.00347   -0.00755
 23 Cu   -0.00545    0.00406   -0.01502
 24 Cu   -0.00522   -0.00027    0.00292
 25 Cu    0.00080   -0.00297    0.00053
 26 Cu    0.00566   -0.00404    0.01570
 27 Cu    0.00545   -0.00317   -0.00143
 28 Cu    0.00308    0.00200    0.00583
 29 Cu   -0.00057   -0.00069    0.00168
 30 Cu    0.00285   -0.00060    0.00394
 31 Cu   -0.00428   -0.00296    0.01006
 32 Cu   -0.00174   -0.00273    0.00504
 33 Cu    0.00201    0.00009    0.00111
 34 Cu    0.00018   -0.00059    0.00444
 35 Cu    0.00080    0.00232    0.00174
 36 Cu    0.00005    0.00060   -0.00701
 37 Cu    0.00095   -0.00238   -0.00337
 38 Cu    0.00122    0.00012   -0.00716
 39 Cu   -0.00139   -0.00063   -0.00265
 40 Cu   -0.00117    0.00022   -0.00756
 41 Cu    0.00149    0.00045   -0.00938
 42 Cu    0.00315   -0.00235   -0.00531
 43 Cu   -0.00084    0.00070   -0.00236
 44 Cu    0.00558    0.00405   -0.01497
 45 Cu    0.00572    0.00316    0.00176
 46 Cu   -0.00056    0.00349   -0.00755
 47 Cu   -0.00531    0.00235   -0.00772
 48 Cu   -0.00540   -0.00405    0.01577
 49 Cu    0.00075   -0.00339    0.00714
 50 Cu   -0.00134   -0.00044    0.00967
 51 Cu    0.00083   -0.00069    0.00169
 52 Cu    0.00010   -0.00060    0.00445
 53 Cu   -0.00105   -0.00011    0.00500
 54 Cu   -0.00172   -0.00009   -0.00377
 55 Cu   -0.00068   -0.00238   -0.00337
 56 Cu   -0.00306   -0.00233   -0.00532
 57 Cu   -0.00267    0.00060   -0.00512
 58 Cu   -0.00063    0.00298   -0.00017
 59 Cu   -0.00579    0.00314    0.00175
 60 Cu   -0.00517   -0.00232    0.00892
 61 Cu   -0.00048   -0.00346    0.00713
 62 Cu    0.00150   -0.00045    0.00968
 63 Cu   -0.00131   -0.00023    0.00731
 64 Cu   -0.00152    0.00060    0.00049
 65 Cu    0.00129   -0.00013    0.00499
 66 Cu    0.00199   -0.00009   -0.00379
 67 Cu   -0.00196    0.00290   -0.00656
 68 Cu   -0.00448    0.00330   -0.00941
 69 Cu    0.00286    0.00060   -0.00508
 70 Cu    0.00070    0.00298   -0.00019
 71 Cu   -0.00568    0.00035   -0.00264
 72 Cl   -0.00438   -0.02163    0.00171
 73 Cl    0.00435   -0.02163    0.00172
 74 Cl    0.00462    0.02163   -0.00085
 75 Cl   -0.00469    0.02164   -0.00081