User:   thorkong@node030.cluster
Date:   Sun Oct  9 05:07:49 2022
Arch:   x86_64
Pid:    6938
Python: 3.10.5
gpaw:   /groups/kemi/thorkong/miniconda3/envs/gpaw22/lib/python3.10/site-packages/gpaw
_gpaw:  /groups/kemi/thorkong/miniconda3/envs/gpaw22/lib/python3.10/site-packages/
        _gpaw.cpython-310-x86_64-linux-gnu.so
ase:    /groups/kemi/thorkong/miniconda3/envs/gpaw22/lib/python3.10/site-packages/ase (version 3.22.1)
numpy:  /groups/kemi/thorkong/miniconda3/envs/gpaw22/lib/python3.10/site-packages/numpy (version 1.23.0)
scipy:  /groups/kemi/thorkong/miniconda3/envs/gpaw22/lib/python3.10/site-packages/scipy (version 1.8.1)
units:  Angstrom and eV
cores: 32
OpenMP: True
OMP_NUM_THREADS: 1

Input parameters:
  basis: dzp
  kpts: [4 4 1]
  mode: {ecut: 600.0,
         name: pw}
  xc: BEEF-vdW

System changes: positions, numbers, cell, pbc, initial_charges, initial_magmoms

Initialize ...

Cu-setup:
  name: Copper
  id: f1c4d45d90492f1bbfdcb091e8418fdf
  Z: 29.0
  valence: 11
  core: 18
  charge: 0.0
  file: /groups/kemi/thorkong/miniconda3/envs/gpaw22/share/gpaw/Cu.PBE.gz
  compensation charges: gauss, rc=0.33, lmax=2
  cutoffs: 2.06(filt), 2.43(core),
  valence states:
                energy  radius
    4s(1.00)    -4.609   1.164
    4p(0.00)    -0.698   1.164
    3d(10.00)    -5.039   1.058
    *s          22.603   1.164
    *p          26.513   1.164
    *d          22.172   1.058

  LCAO basis set for Cu:
    Name: dzp
    File: /groups/kemi/thorkong/miniconda3/envs/gpaw22/share/gpaw/Cu.dzp.basis.gz
    Number of radial functions: 5
    Number of spherical harmonics: 15
      l=0, rc=8.9688 Bohr: 4s-sz confined orbital
      l=2, rc=5.1719 Bohr: 3d-sz confined orbital
      l=0, rc=5.3281 Bohr: 4s-dz split-valence wave
      l=2, rc=3.1406 Bohr: 3d-dz split-valence wave
      l=1, rc=8.9688 Bohr: p-type Gaussian polarization

Cl-setup:
  name: Chlorine
  id: 726897f06f34e53cf8e33b5885a02604
  Z: 17.0
  valence: 7
  core: 10
  charge: 0.0
  file: /groups/kemi/thorkong/miniconda3/envs/gpaw22/share/gpaw/Cl.PBE.gz
  compensation charges: gauss, rc=0.25, lmax=2
  cutoffs: 1.40(filt), 1.49(core),
  valence states:
                energy  radius
    3s(2.00)   -20.689   0.794
    3p(5.00)    -8.594   0.794
    *s           6.523   0.794
    *p          18.617   0.794
    *d           0.000   0.794

  LCAO basis set for Cl:
    Name: dzp
    File: /groups/kemi/thorkong/miniconda3/envs/gpaw22/share/gpaw/Cl.dzp.basis.gz
    Number of radial functions: 5
    Number of spherical harmonics: 13
      l=0, rc=5.1719 Bohr: 3s-sz confined orbital
      l=1, rc=6.2656 Bohr: 3p-sz confined orbital
      l=0, rc=2.8281 Bohr: 3s-dz split-valence wave
      l=1, rc=3.5156 Bohr: 3p-dz split-valence wave
      l=2, rc=6.2656 Bohr: d-type Gaussian polarization

Reference energy: -2581817.792169

Spin-paired calculation

Convergence criteria:
 Maximum [total energy] change in last 3 cyles: 0.0005 eV / electron
 Maximum integral of absolute [dens]ity change: 0.0001 electrons / valence electron
 Maximum integral of absolute [eigenst]ate change: 4e-08 eV^2 / valence electron
 Maximum number of scf [iter]ations: 333
 (Square brackets indicate name in SCF output, whereas a 'c' in
 the SCF output indicates the quantity has converged.)

Symmetries present (total): 1

  ( 1  0  0)
  ( 0  1  0)
  ( 0  0  1)

16 k-points: 4 x 4 x 1 Monkhorst-Pack grid
8 k-points in the irreducible part of the Brillouin zone
       k-points in crystal coordinates                weights
   0:     0.12500000   -0.37500000    0.00000000          2/16
   1:     0.12500000   -0.12500000    0.00000000          2/16
   2:     0.12500000    0.12500000    0.00000000          2/16
   3:     0.12500000    0.37500000    0.00000000          2/16
   4:     0.37500000   -0.37500000    0.00000000          2/16
   5:     0.37500000   -0.12500000    0.00000000          2/16
   6:     0.37500000    0.12500000    0.00000000          2/16
   7:     0.37500000    0.37500000    0.00000000          2/16

Wave functions: Plane wave expansion
  Cutoff energy: 600.000 eV
  Number of coefficients (min, max): 63070, 63184
  Pulay-stress correction: 0.000000 eV/Ang^3 (de/decut=0.000000)
  Using FFTW library
  ScaLapack parameters: grid=2x2, blocksize=64
  Wavefunction extrapolation:
    Improved wavefunction reuse through dual PAW basis

Occupation numbers: Fermi-Dirac: width=0.1000 eV

Eigensolver
   Davidson(niter=2)

Densities:
  Coarse grid: 45*48*175 grid
  Fine grid: 90*96*350 grid
  Total Charge: 0.000000

Density mixing:
  Method: separate
  Backend: pulay
  Linear mixing parameter: 0.05
  Mixing with 5 old densities
  Damping of long wave oscillations: 50

Hamiltonian:
  XC and Coulomb potentials evaluated on a 90*96*350 grid
  Using the BEEF-vdW Exchange-Correlation functional
  External potential:
    NoExternalPotential

XC parameters: BEEF-vdW with 2 nearest neighbor stencil

Total number of cores used: 32
Parallelization over k-points: 8
Domain decomposition: 1 x 1 x 4
                      2 x 2 x 8 (xc only)

Number of atoms: 66
Number of atomic orbitals: 966
Number of bands in calculation: 411
Number of valence electrons: 678
Bands to converge: occupied

... initialized

Initializing position-dependent things.

Density initialized from atomic densities
Creating initial wave functions:
  411 bands from LCAO basis set

                 Cl        Cl

           Cl       Cl
                       Cl
           CuCl  Cu     Cu
               Cu    Cu     Cu
         Cu    Cu     Cu
        Cu   CCu   CCu    Cu

           Cu    CCu    Cu
         Cu    Cu    CCu    Cu

       Cu    CCu    Cu    Cu
           Cu    CCu    Cu

         Cu    CCu   CCu   Cu
             Cu     Cu    Cu
       Cu     Cu    Cu
           Cu     Cu  ClCu
            Cl
               Cl       Cl

[...]

Positions:
   0 Cu     1.880312    1.836925    9.995901    ( 0.0000,  0.0000,  0.0000)
   1 Cu     0.547739    0.533606   11.836371    ( 0.0000,  0.0000,  0.0000)
   2 Cu     3.185063    0.519214   11.853359    ( 0.0000,  0.0000,  0.0000)
   3 Cu     1.886106    1.834922   13.688547    ( 0.0000,  0.0000,  0.0000)
   4 Cu     0.579891    0.535407   15.549821    ( 0.0000,  0.0000,  0.0000)
   5 Cu     3.196139    0.524502   15.549087    ( 0.0000,  0.0000,  0.0000)
   6 Cu     1.884453    1.842499   17.414765    ( 0.0000,  0.0000,  0.0000)
   7 Cu     0.634415    0.548706   19.295142    ( 0.0000,  0.0000,  0.0000)
   8 Cu     3.251219    0.527470   19.212041    ( 0.0000,  0.0000,  0.0000)
   9 Cu     0.576186    3.147456   11.852674    ( 0.0000,  0.0000,  0.0000)
  10 Cu     0.569782    3.134860   15.549237    ( 0.0000,  0.0000,  0.0000)
  11 Cu     0.509578    3.122394   19.303428    ( 0.0000,  0.0000,  0.0000)
  12 Cu     7.106600    1.836347    9.970551    ( 0.0000,  0.0000,  0.0000)
  13 Cu     5.780179    0.523980   11.841576    ( 0.0000,  0.0000,  0.0000)
  14 Cu     7.111254    1.831254   13.704595    ( 0.0000,  0.0000,  0.0000)
  15 Cu     5.811045    0.518525   15.553514    ( 0.0000,  0.0000,  0.0000)
  16 Cu     7.111386    1.827260   17.417320    ( 0.0000,  0.0000,  0.0000)
  17 Cu     5.866828    0.503418   19.294322    ( 0.0000,  0.0000,  0.0000)
  18 Cu     4.501949    1.831603    9.988365    ( 0.0000,  0.0000,  0.0000)
  19 Cu     4.561536    4.430865    9.962119    ( 0.0000,  0.0000,  0.0000)
  20 Cu     3.217377    3.140184   11.840282    ( 0.0000,  0.0000,  0.0000)
  21 Cu     5.839362    3.143506   11.838524    ( 0.0000,  0.0000,  0.0000)
  22 Cu     4.501203    1.837162   13.704149    ( 0.0000,  0.0000,  0.0000)
  23 Cu     4.508516    4.448476   13.697503    ( 0.0000,  0.0000,  0.0000)
  24 Cu     3.182576    3.146332   15.553115    ( 0.0000,  0.0000,  0.0000)
  25 Cu     5.808555    3.147260   15.549841    ( 0.0000,  0.0000,  0.0000)
  26 Cu     4.501904    1.834499   17.384578    ( 0.0000,  0.0000,  0.0000)
  27 Cu     4.473705    4.454559   17.410819    ( 0.0000,  0.0000,  0.0000)
  28 Cu     3.129437    3.163744   19.289187    ( 0.0000,  0.0000,  0.0000)
  29 Cu     5.747308    3.142929   19.216277    ( 0.0000,  0.0000,  0.0000)
  30 Cu     1.943724    4.451714   10.034544    ( 0.0000,  0.0000,  0.0000)
  31 Cu     1.824341    7.091101    9.956758    ( 0.0000,  0.0000,  0.0000)
  32 Cu     0.579654    5.767442   11.833600    ( 0.0000,  0.0000,  0.0000)
  33 Cu     3.189155    5.760199   11.865880    ( 0.0000,  0.0000,  0.0000)
  34 Cu     1.882474    4.447516   13.700660    ( 0.0000,  0.0000,  0.0000)
  35 Cu     1.880169    7.076079   13.697073    ( 0.0000,  0.0000,  0.0000)
  36 Cu     0.579789    5.763521   15.545905    ( 0.0000,  0.0000,  0.0000)
  37 Cu     3.189992    5.757496   15.546307    ( 0.0000,  0.0000,  0.0000)
  38 Cu     1.851791    4.451257   17.412278    ( 0.0000,  0.0000,  0.0000)
  39 Cu     1.911092    7.070528   17.409326    ( 0.0000,  0.0000,  0.0000)
  40 Cu     0.584536    5.758194   19.280967    ( 0.0000,  0.0000,  0.0000)
  41 Cu     3.189252    5.762957   19.263216    ( 0.0000,  0.0000,  0.0000)
  42 Cu     7.181601    4.472199    9.947621    ( 0.0000,  0.0000,  0.0000)
  43 Cu     7.056700    7.045833    9.956054    ( 0.0000,  0.0000,  0.0000)
  44 Cu     5.806633    5.752135   11.836148    ( 0.0000,  0.0000,  0.0000)
  45 Cu     7.121399    4.459779   13.701276    ( 0.0000,  0.0000,  0.0000)
  46 Cu     7.111123    7.059362   13.700697    ( 0.0000,  0.0000,  0.0000)
  47 Cu     5.805093    5.759789   15.562193    ( 0.0000,  0.0000,  0.0000)
  48 Cu     7.115011    4.447241   17.397965    ( 0.0000,  0.0000,  0.0000)
  49 Cu     7.143535    7.061028   17.414706    ( 0.0000,  0.0000,  0.0000)
  50 Cu     5.810809    5.757775   19.255542    ( 0.0000,  0.0000,  0.0000)
  51 Cu     4.439985    7.067141   10.038807    ( 0.0000,  0.0000,  0.0000)
  52 Cu     4.495031    7.070218   13.701407    ( 0.0000,  0.0000,  0.0000)
  53 Cu     4.506045    7.075429   17.397164    ( 0.0000,  0.0000,  0.0000)
  54 Cl     4.568074    4.459326   21.592169    ( 0.0000,  0.0000,  0.0000)
  55 Cl     3.123412    3.134858    7.659070    ( 0.0000,  0.0000,  0.0000)
  56 Cl     2.387165    1.677347   21.667147    ( 0.0000,  0.0000,  0.0000)
  57 Cl     5.304289    5.916932    7.583802    ( 0.0000,  0.0000,  0.0000)
  58 Cl     2.763623    7.075752   21.807483    ( 0.0000,  0.0000,  0.0000)
  59 Cl     4.927838    0.518584    7.443789    ( 0.0000,  0.0000,  0.0000)
  60 Cl     0.674461    0.528134    7.651758    ( 0.0000,  0.0000,  0.0000)
  61 Cl     7.016800    7.066257   21.599405    ( 0.0000,  0.0000,  0.0000)
  62 Cl     6.568989    1.991720   21.685424    ( 0.0000,  0.0000,  0.0000)
  63 Cl     1.122326    5.602595    7.565194    ( 0.0000,  0.0000,  0.0000)
  64 Cl     6.753317    3.160514    7.405769    ( 0.0000,  0.0000,  0.0000)
  65 Cl     0.938146    4.433729   21.845475    ( 0.0000,  0.0000,  0.0000)

Unit cell:
           periodic     x           y           z      points  spacing
  1. axis:    yes    7.851007    0.000000    0.000000    45     0.1655
  2. axis:    yes    2.617002    7.851007    0.000000    48     0.1636
  3. axis:    yes    0.000000    0.000000   30.683867   175     0.1753

  Lengths:   7.851007   8.275688  30.683867
[...]

[...]

          CuCl   Cu    Cl

         Cu   CCu   CCu    Cu
       Cu    CCu   CCu   Cu

          CCu    Cu    CCu
         Cu   CCu   CCu    Cu

       Cu    CCu   CCu   Cu
          CCu    Cu    CCu

[...]

           Cu    Cu   ClCu

[...]

     iter     time        total  log10-change:
                         energy  eigst   dens
iter:   1 05:48:21 -4641.098903  -0.71
iter:   2 05:49:14 -4580.660470  -0.25  -0.99
iter:   3 05:50:16 -4530.651991  -1.23  -1.41
iter:   4 05:51:09 -4527.974369  -2.83  -1.78
iter:   5 05:52:03 -4523.165126  -1.86  -1.81
iter:   6 05:53:12 -4522.446531  -2.80  -2.04
iter:   7 05:54:21 -4522.466630  -3.31  -2.14
iter:   8 05:55:19 -4522.056055  -3.28  -2.19
iter:   9 05:56:23 -4522.084775  -2.91  -2.37
iter:  10 05:57:43 -4521.937175c -4.05  -2.47
iter:  11 05:58:35 -4521.929315c -4.02  -2.75
iter:  12 05:59:27 -4521.968590c -4.36  -2.84
iter:  13 06:00:20 -4522.047226c -4.03  -2.68
iter:  14 06:01:18 -4521.955277c -4.74  -2.53
iter:  15 06:02:11 -4521.938075c -5.43  -2.81
iter:  16 06:03:09 -4521.915173c -5.22  -2.88
iter:  17 06:04:14 -4521.921941c -4.67  -3.32
iter:  18 06:05:06 -4521.915195c -5.32  -3.11
iter:  19 06:06:09 -4521.912124c -6.01  -3.42
iter:  20 06:07:15 -4521.914553c -6.38  -3.60
iter:  21 06:08:13 -4521.912398c -5.46  -3.55
iter:  22 06:09:06 -4521.913018c -6.57  -3.95
iter:  23 06:10:10 -4521.912977c -6.48  -4.03c
iter:  24 06:11:22 -4521.913128c -6.51  -4.17c
iter:  25 06:12:16 -4521.913111c -7.65c -4.28c

[...]

           Cl       Cl
           Cu    Cu    Clu
             Cl
         Cu    Cu    CCu    Cu

       Cu    CCu   CCu    Cu
           Cu    CCu    Cu
               Cu    Cu     Cu
         Cu    Cu     Cu
             Cu     Cu    Cu
       Cu     Cu    Cu
           Cu    CCu    Cu
         Cu    CCu   CCu    Cu

       Cu    CCu    Cu    Cu
                      Cl
           Cul    Cu    Cu
               Cl       Cl

[...]

           Cl       Cl
           Cu    Cu     Cu
             Cl        Cl
         Cu    Cu    CCu    Cu
              Cu    Cu
       Cu    Cu    Cu     Cu
           Cu    CCu    Cu
                            Cu
         Cu    Cu    CCu
             CCu    Cu    Cu
       Cu           Cu
           Cu    CCu    Cu
         Cu     Cu    Cu    Cu
               Cu    Cu
       Cu    CCu    Cu    Cu
                      Cl
           Cul    Cu    Cu
               Cl       Cl

[...]

           Cl       Cl
           Cu    Cu    Clu
             Cl
         Cu    Cu    CCu    Cu

       Cu    CCu   CCu    Cu
           Cu    CCu    Cu
               Cu    Cu     Cu
         Cu    Cu     Cu
             Cu     Cu    Cu
       Cu     Cu    Cu
           Cu    CCu    Cu
         Cu    CCu   CCu    Cu

       Cu    CCu    Cu    Cu
                      Cl
           Cul    Cu    Cu
               Cl       Cl

[...]

                 Cl        Cl
           Cl
                    Cl
           Cu    Cu    Clu
         Cu  ClCu    Cu     Cu
               Cu     Cu
       Cu    CCu   CCu    Cu

[...]

         Cu    CCu   CCu    Cu
             Cu     Cu
       Cu     Cu    CuCl  Cu
           Cul    Cu    Cu
               Cl
                        Cl
        Cl        Cl

[...]

           Cl       Cl
           Cu    Cu    Clu
             Cl
         Cu    Cu    CCu    Cu
             Cu
       Cu     Cu   CCu    Cu
           Cu    CCu    Cu
                            Cu
         Cu    Cu    CCu
             CCu    Cu    Cu
       Cu
           Cu    CCu    Cu
         Cu    CCu   Cu     Cu
                      Cu
       Cu    CCu    Cu    Cu
                      Cl
           Cul    Cu    Cu
               Cl       Cl

[...]

                 Cl        Cl
           Cl
                    Cl
           CuCl  Cu    Clu
               Cu    Cu     Cu
         Cu    Cu     Cu
       Cu    CCu   CCu    Cu

           Cu    CCu    Cu
         Cu    Cu    CCu    Cu

       Cu    CCu    Cu    Cu
           Cu    CCu    Cu

         Cu    CCu   CCu    Cu
             Cu     Cu    Cu
       Cu     Cu    Cu
           Cul    Cu  ClCu
               Cl
                        Cl
        Cl        Cl

[...]

          CuCl  Cu     Cl
        Cu    CCu   CCu    Cu

[...]

       Cu    CCu   CCu    Cu
           Cu     Cu  ClCu

[...]

          CuCl  Cu     Cl
        Cu    CCu   CCu    Cu

       Cu    CCu   CCu   Cu
          CCu    Cu    CCu

         Cu   CCu   CCu    Cu
       Cu    CCu   CCu   Cu

          CCu    Cu    CCu
         Cu   CCu   CCu    Cu

       Cu    CCu   CCu    Cu
           Cu     Cu  ClCu

               Cl       Cl
       Cl         Cl

[...]

                 Cl        Cl
           Cl
                    Cl
           Cu    Cu    Clu
             ClCu    Cu     Cu
         Cu    Cu     Cu
        Cu   Cu    CCu    Cu
              Cu
           Cu    CCu    Cu
         Cu    Cu    CCu    Cu

       Cu    CCu    Cu    Cu
           Cu    CCu    Cu
                     Cu
         Cu    CCu    Cu   Cu
             Cu     Cu    Cu
       Cu     Cu    CuCl
           Cul    Cu    Cu
               Cl
                        Cl
        Cl        Cl

[...]

                 Cl        Cl
           Cl
                    Cl
           Cu    Cu    Clu
             ClCu    Cu     Cu
         Cu    Cu     Cu
        Cu   Cu    CCu    Cu
              Cu
           Cu    CCu    Cu
         Cu    Cu    CCu    Cu

       Cu    CCu    Cu    Cu
           Cu    CCu    Cu
                     Cu
         Cu    CCu    Cu   Cu
             Cu     Cu    Cu
       Cu     Cu    CuCl
           Cul    Cu    Cu
               Cl
                        Cl
        Cl        Cl

[...]

                 Cl        Cl
           Cl
                    Cl
           Cu    Cu     Cu
             ClCu    CuCl   Cu
         Cu    Cu     Cu
        Cu   Cu    Cu     Cu
              Cu    Cu
           Cu    CCu    Cu
         Cu    Cu    CCu    Cu

       Cu    CCu    Cu    Cu
           Cu    CCu    Cu
               Cu    Cu
         Cu     Cu    Cu   Cu
             Cu     Cu    Cu
       Cu   ClCu    CuCl
           Cu     Cu    Cu
               Cl
                        Cl
        Cl        Cl

[...]

                 Cl        Cl
           Cl
                    Cl
           Cu    Cu     Cu
            Cl Cu    CuCl   Cu
         Cu    Cu     Cu
       Cu    Cu    Cu     Cu
              Cu    Cu
           Cu    CCu    Cu
         Cu    Cu    CCu    Cu

       Cu    CCu    Cu    Cu
           Cu    CCu    Cu
               Cu    Cu
         Cu     Cu    Cu    Cu
             Cu     Cu    Cu
       Cu   ClCu    Cu Cl
           Cu     Cu    Cu
               Cl
                        Cl
        Cl        Cl

[...]

System changes: positions

Initializing position-dependent things.

Density initialized from wave functions

                 Cl        Cl
           Cl
                    Cl
           Cu    Cu     Cu
            Cl Cu    CuCl   Cu
         Cu    Cu     Cu
       Cu    Cu     Cu    Cu
              Cu    Cu
           Cu    CCu    Cu
         Cu    Cu    CCu    Cu

       Cu    CCu    Cu    Cu
           Cu    CCu    Cu
               Cu    Cu
         Cu    Cu     Cu    Cu
             Cu     Cu    Cu
       Cu   ClCu    Cu Cl
           Cu     Cu    Cu
               Cl
                        Cl
        Cl        Cl

Positions:
   0 Cu     1.880099    1.836127   10.010338    ( 0.0000,  0.0000,  0.0000)
   1 Cu     0.555026    0.547261   11.858887    ( 0.0000,  0.0000,  0.0000)
   2 Cu     3.207919    0.523980   11.860091    ( 0.0000,  0.0000,  0.0000)
   3 Cu     1.884250    1.832019   13.702005    ( 0.0000,  0.0000,  0.0000)
   4 Cu     0.571752    0.525590   15.543178    ( 0.0000,  0.0000,  0.0000)
   5 Cu     3.187219    0.524324   15.551629    ( 0.0000,  0.0000,  0.0000)
   6 Cu     1.860456    1.844705   17.413911    ( 0.0000,  0.0000,  0.0000)
   7 Cu     0.596214    0.526470   19.353087    ( 0.0000,  0.0000,  0.0000)
   8 Cu     3.199771    0.522264   19.159175    ( 0.0000,  0.0000,  0.0000)
   9 Cu     0.553125    3.144365   11.858953    ( 0.0000,  0.0000,  0.0000)
  10 Cu     0.577875    3.141487   15.547468    ( 0.0000,  0.0000,  0.0000)
  11 Cu     0.553424    3.145323   19.364200    ( 0.0000,  0.0000,  0.0000)
  12 Cu     7.089087    1.851065    9.930666    ( 0.0000,  0.0000,  0.0000)
  13 Cu     5.796419    0.536017   11.827923    ( 0.0000,  0.0000,  0.0000)
  14 Cu     7.107209    1.836905   13.710742    ( 0.0000,  0.0000,  0.0000)
  15 Cu     5.819556    0.520358   15.557324    ( 0.0000,  0.0000,  0.0000)
  16 Cu     7.141749    1.825457   17.418595    ( 0.0000,  0.0000,  0.0000)
  17 Cu     5.810786    0.503547   19.242805    ( 0.0000,  0.0000,  0.0000)
  18 Cu     4.520078    1.820932    9.949061    ( 0.0000,  0.0000,  0.0000)
  19 Cu     4.498036    4.430329   10.009763    ( 0.0000,  0.0000,  0.0000)
  20 Cu     3.209199    3.126062   11.863103    ( 0.0000,  0.0000,  0.0000)
  21 Cu     5.819219    3.135309   11.822543    ( 0.0000,  0.0000,  0.0000)
  22 Cu     4.505761    1.836464   13.718472    ( 0.0000,  0.0000,  0.0000)
  23 Cu     4.513512    4.443936   13.705970    ( 0.0000,  0.0000,  0.0000)
  24 Cu     3.177676    3.151499   15.547208    ( 0.0000,  0.0000,  0.0000)
  25 Cu     5.816240    3.147192   15.557087    ( 0.0000,  0.0000,  0.0000)
  26 Cu     4.500389    1.836566   17.355279    ( 0.0000,  0.0000,  0.0000)
  27 Cu     4.481908    4.469513   17.389032    ( 0.0000,  0.0000,  0.0000)
  28 Cu     3.193165    3.165090   19.241349    ( 0.0000,  0.0000,  0.0000)
  29 Cu     5.804975    3.148469   19.161920    ( 0.0000,  0.0000,  0.0000)
  30 Cu     1.886390    4.447048   10.089483    ( 0.0000,  0.0000,  0.0000)
  31 Cu     1.880518    7.091771   10.008450    ( 0.0000,  0.0000,  0.0000)
  32 Cu     0.549670    5.769895   11.834027    ( 0.0000,  0.0000,  0.0000)
  33 Cu     3.190863    5.758960   11.897489    ( 0.0000,  0.0000,  0.0000)
  34 Cu     1.874954    4.448222   13.696260    ( 0.0000,  0.0000,  0.0000)
  35 Cu     1.871686    7.075197   13.696023    ( 0.0000,  0.0000,  0.0000)
  36 Cu     0.584031    5.758577   15.542462    ( 0.0000,  0.0000,  0.0000)
  37 Cu     3.185324    5.759015   15.534645    ( 0.0000,  0.0000,  0.0000)
  38 Cu     1.871929    4.460140   17.429964    ( 0.0000,  0.0000,  0.0000)
  39 Cu     1.894987    7.059430   17.424619    ( 0.0000,  0.0000,  0.0000)
  40 Cu     0.602120    5.744154   19.320386    ( 0.0000,  0.0000,  0.0000)
  41 Cu     3.170934    5.774582   19.302677    ( 0.0000,  0.0000,  0.0000)
  42 Cu     7.137799    4.449887    9.887424    ( 0.0000,  0.0000,  0.0000)
  43 Cu     7.095225    7.068946    9.898718    ( 0.0000,  0.0000,  0.0000)
  44 Cu     5.830667    5.750765   11.838537    ( 0.0000,  0.0000,  0.0000)
  45 Cu     7.113299    4.453934   13.705835    ( 0.0000,  0.0000,  0.0000)
  46 Cu     7.119434    7.069953   13.709971    ( 0.0000,  0.0000,  0.0000)
  47 Cu     5.806907    5.763502   15.551065    ( 0.0000,  0.0000,  0.0000)
  48 Cu     7.138253    4.451016   17.393465    ( 0.0000,  0.0000,  0.0000)
  49 Cu     7.136272    7.048090   17.393171    ( 0.0000,  0.0000,  0.0000)
  50 Cu     5.810917    5.759417   19.240237    ( 0.0000,  0.0000,  0.0000)
  51 Cu     4.491496    7.073080   10.092008    ( 0.0000,  0.0000,  0.0000)
  52 Cu     4.503929    7.071269   13.701685    ( 0.0000,  0.0000,  0.0000)
  53 Cu     4.482998    7.071475   17.392272    ( 0.0000,  0.0000,  0.0000)
  54 Cl     4.624300    4.400024   20.841650    ( 0.0000,  0.0000,  0.0000)
  55 Cl     3.066748    3.195420    8.408929    ( 0.0000,  0.0000,  0.0000)
  56 Cl     2.340128    1.778842   20.919003    ( 0.0000,  0.0000,  0.0000)
  57 Cl     5.351446    5.816246    8.331989    ( 0.0000,  0.0000,  0.0000)
  58 Cl     2.921592    7.024405   21.220559    ( 0.0000,  0.0000,  0.0000)
  59 Cl     4.769480    0.571151    8.031013    ( 0.0000,  0.0000,  0.0000)
  60 Cl     0.711357    0.470644    8.406254    ( 0.0000,  0.0000,  0.0000)
  61 Cl     6.980214    7.124392   20.844249    ( 0.0000,  0.0000,  0.0000)
  62 Cl     6.632947    1.891038   20.931179    ( 0.0000,  0.0000,  0.0000)
  63 Cl     1.058539    5.704456    8.319742    ( 0.0000,  0.0000,  0.0000)
  64 Cl     6.882857    3.104727    8.007424    ( 0.0000,  0.0000,  0.0000)
  65 Cl     0.809204    4.490543   21.243566    ( 0.0000,  0.0000,  0.0000)

Unit cell:
           periodic     x           y           z      points  spacing
  1. axis:    yes    7.851007    0.000000    0.000000    45     0.1655
  2. axis:    yes    2.617002    7.851007    0.000000    48     0.1636
  3. axis:    yes    0.000000    0.000000   30.683867   175     0.1753

  Lengths:   7.851007   8.275688  30.683867
  Angles:   90.000000  90.000000  71.565053

Effective grid spacing dv^(1/3) = 0.1710

     iter     time        total  log10-change:
                         energy  eigst   dens
iter:   1 12:11:11 -4528.597438  -3.51
iter:   2 12:12:04 -4528.570735  -4.14  -2.94
iter:   3 12:12:56 -4528.570894c -5.03  -3.40
iter:   4 12:13:49 -4528.567549c -5.74  -3.41
iter:   5 12:14:41 -4528.566531c -5.19  -3.57
iter:   6 12:15:48 -4528.567015c -6.32  -4.02c
iter:   7 12:16:58 -4528.566972c -6.70  -4.02c
iter:   8 12:17:52 -4528.566747c -6.42  -4.09c
iter:   9 12:18:47 -4528.566790c -6.49  -4.40c
iter:  10 12:19:38 -4528.566760c -7.58c -4.57c

Converged after 10 iterations.

Dipole moment: (-25.299187, -38.241881, 0.000588) |e|*Ang

Energy contributions relative to reference atoms: (reference = -2581817.792169)

Kinetic:       +541.267317
Potential:     -563.848456
External:        +0.000000
XC:            -4504.960075
Entropy (-ST):   -0.594366
Local:           -0.728364
Free energy:   -4528.863943
Extrapolated:  -4528.566760

Showing only first 2 kpts
 Kpt  Band  Eigenvalues  Occupancy
  0   337     -0.66379    1.85929
  0   338     -0.58325    1.71035
  0   339     -0.52701    1.54178
  0   340     -0.47355    1.32692

  1   337     -0.57976    1.70159
  1   338     -0.38958    0.91969
  1   339     -0.36444    0.79669
  1   340     -0.20386    0.23462

Fermi level: -0.40567

No gap

Forces in eV/Ang:
  0 Cu    0.00058    0.00011    0.01681
  1 Cu    0.00278   -0.00883   -0.00290
  2 Cu    0.00885   -0.00681   -0.00622
  3 Cu   -0.00342    0.00140   -0.01092
  4 Cu   -0.00234    0.00411    0.00510
  5 Cu    0.00230    0.00069    0.00578
  6 Cu   -0.00549    0.00253   -0.00593
  7 Cu   -0.00910   -0.01438    0.00849
  8 Cu    0.00491   -0.00201   -0.00523
  9 Cu   -0.01013    0.00648   -0.01113
 10 Cu   -0.00334   -0.00417    0.00381
 11 Cu    0.00740    0.01525    0.00368
 12 Cu    0.00742    0.00548    0.00331
 13 Cu   -0.00465   -0.00156    0.00378
 14 Cu    0.00324    0.00097   -0.00428
 15 Cu   -0.00262   -0.00430    0.00622
 16 Cu    0.00414   -0.00502    0.00039
 17 Cu   -0.00676   -0.00101   -0.00883
 18 Cu   -0.00801   -0.00653   -0.00154
 19 Cu   -0.00713   -0.00446    0.00860
 20 Cu   -0.00610    0.00466   -0.00009
 21 Cu    0.00979    0.00389    0.00123
 22 Cu    0.00124   -0.00425   -0.00496
 23 Cu   -0.00349   -0.00570   -0.00953
 24 Cu    0.00375    0.00570    0.00807
 25 Cu    0.00261   -0.00392    0.00438
 26 Cu    0.00148    0.00171    0.00832
 27 Cu    0.00632   -0.00495   -0.00046
 28 Cu    0.00723    0.00464   -0.00687
 29 Cu   -0.00526   -0.00292   -0.00229
 30 Cu    0.00438    0.00386    0.00304
 31 Cu    0.00646    0.00099    0.00995
 32 Cu   -0.00465    0.00517   -0.00085
 33 Cu   -0.00142   -0.00175   -0.00953
 34 Cu   -0.00264    0.00403   -0.00615
 35 Cu    0.00208    0.00464   -0.00808
 36 Cu   -0.00349   -0.00077    0.00205
 37 Cu   -0.00099    0.00434    0.00349
 38 Cu   -0.00957   -0.00382   -0.00176
 39 Cu    0.00412    0.00182   -0.00442
 40 Cu   -0.00805   -0.00455   -0.00223
 41 Cu    0.00862    0.00587    0.00245
 42 Cu   -0.00723   -0.01527   -0.00296
 43 Cu    0.00887    0.01466   -0.00776
 44 Cu    0.00585   -0.00246    0.00555
 45 Cu    0.00312    0.00455   -0.00613
 46 Cu    0.00239   -0.00401   -0.00688
 47 Cu    0.00349   -0.00133    0.00949
 48 Cu    0.00960   -0.00631    0.00949
 49 Cu   -0.00287    0.00941    0.00235
 50 Cu   -0.00048   -0.00006   -0.01499
 51 Cu   -0.00455    0.00180    0.00610
 52 Cu   -0.00186   -0.00085   -0.00731
 53 Cu   -0.00832    0.00715    0.00475
 54 Cl    0.01404   -0.00100   -0.01115
 55 Cl   -0.01350    0.00175    0.01159
 56 Cl   -0.00685    0.01163    0.02116
 57 Cl    0.00663   -0.01112   -0.02008
 58 Cl    0.01058   -0.00683    0.01697
 59 Cl   -0.01040    0.00673   -0.01514
 60 Cl    0.00888   -0.00029    0.01224
 61 Cl   -0.00903   -0.00012   -0.01181
 62 Cl    0.01113   -0.01519    0.01472
 63 Cl   -0.01111    0.01506   -0.01308
 64 Cl    0.00744   -0.00922   -0.00600
 65 Cl   -0.00756    0.00975    0.00784