User:   thorkong@node025.cluster
Date:   Sun Oct  9 00:45:21 2022
Arch:   x86_64
Pid:    48787
Python: 3.10.5
gpaw:   /groups/kemi/thorkong/miniconda3/envs/gpaw22/lib/python3.10/site-packages/gpaw
_gpaw:  /groups/kemi/thorkong/miniconda3/envs/gpaw22/lib/python3.10/site-packages/
        _gpaw.cpython-310-x86_64-linux-gnu.so
ase:    /groups/kemi/thorkong/miniconda3/envs/gpaw22/lib/python3.10/site-packages/ase (version 3.22.1)
numpy:  /groups/kemi/thorkong/miniconda3/envs/gpaw22/lib/python3.10/site-packages/numpy (version 1.23.0)
scipy:  /groups/kemi/thorkong/miniconda3/envs/gpaw22/lib/python3.10/site-packages/scipy (version 1.8.1)
units:  Angstrom and eV
cores: 32
OpenMP: True
OMP_NUM_THREADS: 1

Input parameters:
  basis: dzp
  kpts: [4 4 1]
  mode: {ecut: 600.0,
         name: pw}
  xc: BEEF-vdW

System changes: positions, numbers, cell, pbc, initial_charges, initial_magmoms

Initialize ...

Cu-setup:
  name: Copper
  id: f1c4d45d90492f1bbfdcb091e8418fdf
  Z: 29.0
  valence: 11
  core: 18
  charge: 0.0
  file: /groups/kemi/thorkong/miniconda3/envs/gpaw22/share/gpaw/Cu.PBE.gz
  compensation charges: gauss, rc=0.33, lmax=2
  cutoffs: 2.06(filt), 2.43(core),
  valence states:
                energy  radius
    4s(1.00)    -4.609   1.164
    4p(0.00)    -0.698   1.164
    3d(10.00)    -5.039   1.058
    *s          22.603   1.164
    *p          26.513   1.164
    *d          22.172   1.058

  LCAO basis set for Cu:
    Name: dzp
    File: /groups/kemi/thorkong/miniconda3/envs/gpaw22/share/gpaw/Cu.dzp.basis.gz
    Number of radial functions: 5
    Number of spherical harmonics: 15
      l=0, rc=8.9688 Bohr: 4s-sz confined orbital
      l=2, rc=5.1719 Bohr: 3d-sz confined orbital
      l=0, rc=5.3281 Bohr: 4s-dz split-valence wave
      l=2, rc=3.1406 Bohr: 3d-dz split-valence wave
      l=1, rc=8.9688 Bohr: p-type Gaussian polarization

Cl-setup:
  name: Chlorine
  id: 726897f06f34e53cf8e33b5885a02604
  Z: 17.0
  valence: 7
  core: 10
  charge: 0.0
  file: /groups/kemi/thorkong/miniconda3/envs/gpaw22/share/gpaw/Cl.PBE.gz
  compensation charges: gauss, rc=0.25, lmax=2
  cutoffs: 1.40(filt), 1.49(core),
  valence states:
                energy  radius
    3s(2.00)   -20.689   0.794
    3p(5.00)    -8.594   0.794
    *s           6.523   0.794
    *p          18.617   0.794
    *d           0.000   0.794

  LCAO basis set for Cl:
    Name: dzp
    File: /groups/kemi/thorkong/miniconda3/envs/gpaw22/share/gpaw/Cl.dzp.basis.gz
    Number of radial functions: 5
    Number of spherical harmonics: 13
      l=0, rc=5.1719 Bohr: 3s-sz confined orbital
      l=1, rc=6.2656 Bohr: 3p-sz confined orbital
      l=0, rc=2.8281 Bohr: 3s-dz split-valence wave
      l=1, rc=3.5156 Bohr: 3p-dz split-valence wave
      l=2, rc=6.2656 Bohr: d-type Gaussian polarization

Reference energy: -3341984.127726

Spin-paired calculation

Convergence criteria:
 Maximum [total energy] change in last 3 cyles: 0.0005 eV / electron
 Maximum integral of absolute [dens]ity change: 0.0001 electrons / valence electron
 Maximum integral of absolute [eigenst]ate change: 4e-08 eV^2 / valence electron
 Maximum number of scf [iter]ations: 333
 (Square brackets indicate name in SCF output, whereas a 'c' in
 the SCF output indicates the quantity has converged.)

Symmetries present (total): 1

  ( 1  0  0)
  ( 0  1  0)
  ( 0  0  1)

16 k-points: 4 x 4 x 1 Monkhorst-Pack grid
8 k-points in the irreducible part of the Brillouin zone
       k-points in crystal coordinates                weights
   0:     0.12500000   -0.37500000    0.00000000          2/16
   1:     0.12500000   -0.12500000    0.00000000          2/16
   2:     0.12500000    0.12500000    0.00000000          2/16
   3:     0.12500000    0.37500000    0.00000000          2/16
   4:     0.37500000   -0.37500000    0.00000000          2/16
   5:     0.37500000   -0.12500000    0.00000000          2/16
   6:     0.37500000    0.12500000    0.00000000          2/16
   7:     0.37500000    0.37500000    0.00000000          2/16

Wave functions: Plane wave expansion
  Cutoff energy: 600.000 eV
  Number of coefficients (min, max): 66642, 66743
  Pulay-stress correction: 0.000000 eV/Ang^3 (de/decut=0.000000)
  Using FFTW library
  ScaLapack parameters: grid=2x2, blocksize=64
  Wavefunction extrapolation:
    Improved wavefunction reuse through dual PAW basis

Occupation numbers: Fermi-Dirac: width=0.1000 eV

Eigensolver
   Davidson(niter=2)

Densities:
  Coarse grid: 45*42*196 grid
  Fine grid: 90*84*392 grid
  Total Charge: 0.000000

Density mixing:
  Method: separate
  Backend: pulay
  Linear mixing parameter: 0.05
  Mixing with 5 old densities
  Damping of long wave oscillations: 50

Hamiltonian:
  XC and Coulomb potentials evaluated on a 90*84*392 grid
  Using the BEEF-vdW Exchange-Correlation functional
  External potential:
    NoExternalPotential

XC parameters: BEEF-vdW with 2 nearest neighbor stencil

Total number of cores used: 32
Parallelization over k-points: 8
Domain decomposition: 1 x 1 x 4
                      2 x 2 x 8 (xc only)

Number of atoms: 80
Number of atomic orbitals: 1184
Number of bands in calculation: 513
Number of valence electrons: 848
Bands to converge: occupied

... initialized

Initializing position-dependent things.

Density initialized from atomic densities
Creating initial wave functions:
  513 bands from LCAO basis set

 |    |         Cl       |
 |   Cl        Cu        |
 |    |  Cu          Cu  |
 |    |Cl      Cl        |
 |  CuCu   CCu   CuCu    |
 |    |  Cu  CuCu    Cu  |
 |Cu  CuCuCuCuCu   Cu    |
 |  Cu|  Cu    CuCuCuCu  |
 |Cu  Cu    CuCu   Cu    |
 |  Cu|CuCCu   CuCuCuCu  |
 |Cu  | Cu               |
 |  CuCu CuCCu CuCuCuCu  |
 |    |      Cu    Cu    |
 |    | Cu               |
 |  CuCu CCuCu CuCuCuCu  |
 |    |      Cu    Cu    |
 |CuCuCu   CCu   CuCu    |
 |    | Cl      Cl       |
 |Cu  |                  |
 |    |Cl         Cl     |

Positions:
   0 Cu     2.913748   -0.069588   10.000862    ( 0.0000,  0.0000,  0.0000)
   1 Cu     1.613236    1.849881   11.279846    ( 0.0000,  0.0000,  0.0000)
   2 Cu     4.178314    1.849789   11.267697    ( 0.0000,  0.0000,  0.0000)
   3 Cu     0.258722    0.067379   10.004240    ( 0.0000,  0.0000,  0.0000)
   4 Cu     0.279283    0.000170   12.626462    ( 0.0000,  0.0000,  0.0000)
   5 Cu     4.205338    1.848811   13.916119    ( 0.0000,  0.0000,  0.0000)
   6 Cu     1.578475    1.850439   13.921608    ( 0.0000,  0.0000,  0.0000)
   7 Cu     2.892119   -0.000719   12.624575    ( 0.0000,  0.0000,  0.0000)
   8 Cu     2.892991    0.007967   15.243967    ( 0.0000,  0.0000,  0.0000)
   9 Cu     1.580970    1.850768   16.541798    ( 0.0000,  0.0000,  0.0000)
  10 Cu     4.205187    1.850418   16.540209    ( 0.0000,  0.0000,  0.0000)
  11 Cu     0.276598   -0.007949   15.240176    ( 0.0000,  0.0000,  0.0000)
  12 Cu     0.279755    0.000112   17.852277    ( 0.0000,  0.0000,  0.0000)
  13 Cu     4.202062    1.858533   19.152343    ( 0.0000,  0.0000,  0.0000)
  14 Cu     1.587124    1.850693   19.155111    ( 0.0000,  0.0000,  0.0000)
  15 Cu     2.895569    0.000187   17.861121    ( 0.0000,  0.0000,  0.0000)
  16 Cu     2.898523   -0.001766   20.466146    ( 0.0000,  0.0000,  0.0000)
  17 Cu     1.586572    1.850618   21.755777    ( 0.0000,  0.0000,  0.0000)
  18 Cu     4.204718    1.850302   21.766198    ( 0.0000,  0.0000,  0.0000)
  19 Cu     0.279889    0.001674   20.476482    ( 0.0000,  0.0000,  0.0000)
  20 Cu     0.252764    0.000704   23.125049    ( 0.0000,  0.0000,  0.0000)
  21 Cu     4.184291    1.783167   24.388675    ( 0.0000,  0.0000,  0.0000)
  22 Cu     1.584600    1.851792   24.315511    ( 0.0000,  0.0000,  0.0000)
  23 Cu     2.886335    0.000582   23.071068    ( 0.0000,  0.0000,  0.0000)
  24 Cu     2.912729    3.768382   10.004204    ( 0.0000,  0.0000,  0.0000)
  25 Cu     1.558233    5.550878   11.279806    ( 0.0000,  0.0000,  0.0000)
  26 Cu     4.210607    5.550929   11.321785    ( 0.0000,  0.0000,  0.0000)
  27 Cu     0.257704    3.631420   10.000891    ( 0.0000,  0.0000,  0.0000)
  28 Cu     0.279456    3.700286   12.624586    ( 0.0000,  0.0000,  0.0000)
  29 Cu     4.198429    5.553280   13.926409    ( 0.0000,  0.0000,  0.0000)
  30 Cu     1.592956    5.551437   13.921618    ( 0.0000,  0.0000,  0.0000)
  31 Cu     2.892297    3.701175   12.626451    ( 0.0000,  0.0000,  0.0000)
  32 Cu     2.894824    3.693051   15.240184    ( 0.0000,  0.0000,  0.0000)
  33 Cu     1.590345    5.551770   16.541807    ( 0.0000,  0.0000,  0.0000)
  34 Cu     4.201317    5.551281   16.531449    ( 0.0000,  0.0000,  0.0000)
  35 Cu     0.278436    3.708965   15.243965    ( 0.0000,  0.0000,  0.0000)
  36 Cu     0.275806    3.701188   17.861116    ( 0.0000,  0.0000,  0.0000)
  37 Cu     4.203907    5.543450   19.148651    ( 0.0000,  0.0000,  0.0000)
  38 Cu     1.584229    5.551695   19.155116    ( 0.0000,  0.0000,  0.0000)
  39 Cu     2.891616    3.701113   17.852287    ( 0.0000,  0.0000,  0.0000)
  40 Cu     2.891571    3.702676   20.476492    ( 0.0000,  0.0000,  0.0000)
  41 Cu     1.584921    5.551630   21.755777    ( 0.0000,  0.0000,  0.0000)
  42 Cu     4.204880    5.552243   21.768117    ( 0.0000,  0.0000,  0.0000)
  43 Cu     0.272958    3.699234   20.466151    ( 0.0000,  0.0000,  0.0000)
  44 Cu     0.285128    3.701582   23.071064    ( 0.0000,  0.0000,  0.0000)
  45 Cu     4.183268    5.621040   24.392048    ( 0.0000,  0.0000,  0.0000)
  46 Cu     1.586763    5.552758   24.315508    ( 0.0000,  0.0000,  0.0000)
  47 Cu     2.918701    3.701703   23.125043    ( 0.0000,  0.0000,  0.0000)
  48 Cu     6.811844    1.849929   11.321787    ( 0.0000,  0.0000,  0.0000)
  49 Cu     5.510178   -0.001281   10.077458    ( 0.0000,  0.0000,  0.0000)
  50 Cu     5.512131   -0.000121   12.636937    ( 0.0000,  0.0000,  0.0000)
  51 Cu     6.824004    1.852279   13.926416    ( 0.0000,  0.0000,  0.0000)
  52 Cu     6.821005    1.850281   16.531443    ( 0.0000,  0.0000,  0.0000)
  53 Cu     5.512651   -0.000193   15.237443    ( 0.0000,  0.0000,  0.0000)
  54 Cu     5.506425   -0.000267   17.850739    ( 0.0000,  0.0000,  0.0000)
  55 Cu     6.818465    1.842449   19.148647    ( 0.0000,  0.0000,  0.0000)
  56 Cu     6.817620    1.851252   21.768124    ( 0.0000,  0.0000,  0.0000)
  57 Cu     5.503983    0.000062   20.470998    ( 0.0000,  0.0000,  0.0000)
  58 Cu     5.538801    0.000619   23.112945    ( 0.0000,  0.0000,  0.0000)
  59 Cu     6.839066    1.920045   24.392079    ( 0.0000,  0.0000,  0.0000)
[...]
  65 Cu     5.509770    3.700806   15.237438    ( 0.0000,  0.0000,  0.0000)
  66 Cu     5.515956    3.700731   17.850729    ( 0.0000,  0.0000,  0.0000)
  67 Cu     6.820303    5.559532   19.152333    ( 0.0000,  0.0000,  0.0000)
  68 Cu     6.817785    5.551294   21.766205    ( 0.0000,  0.0000,  0.0000)
  69 Cu     5.518502    3.701062   20.470984    ( 0.0000,  0.0000,  0.0000)
  70 Cu     5.483682    3.701620   23.112975    ( 0.0000,  0.0000,  0.0000)
  71 Cu     6.838040    5.484166   24.388713    ( 0.0000,  0.0000,  0.0000)
  72 Cl     0.638542    3.705582   26.193231    ( 0.0000,  0.0000,  0.0000)
  73 Cl     5.147626    3.703296   26.221537    ( 0.0000,  0.0000,  0.0000)
[...]
 |    CuCu  CuCu   Cu    |
 |  Cu|  CuCuCuCuCuCuCu  |
 |    | Cu    Cu         |
 |  CuCu CuCCu CuCuCuCu  |
 |    |      Cu    Cu    |
 |Cu  |                  |
 |  CuCu CuCCu   CuCuCu  |
 |    |Cu      Cu  Cu    |
 |CuCuCu  CuCu   CuCu    |
 |    |Cl       Cl       |
 |    | Cu       Cl      |

[...]

     iter     time        total  log10-change:
                         energy  eigst   dens
iter:   1 04:25:07 -5749.585391  -2.71
iter:   2 04:26:21 -5749.451680  -3.50  -2.66
iter:   3 04:27:44 -5749.418778c -4.25  -2.87
iter:   4 04:28:57 -5749.451157c -4.13  -2.93
iter:   5 04:30:10 -5749.396498c -4.07  -2.89
iter:   6 04:31:28 -5749.388674c -4.64  -3.34
iter:   7 04:32:41 -5749.388503c -5.47  -3.60
iter:   8 04:33:53 -5749.388382c -5.18  -3.67
iter:   9 04:35:07 -5749.388545c -6.04  -3.93
iter:  10 04:36:19 -5749.388352c -5.39  -4.01c
iter:  11 04:37:33 -5749.387938c -6.37  -3.91
iter:  12 04:39:16 -5749.387877c -6.34  -4.12c
iter:  13 04:40:29 -5749.387826c -7.41c -4.31c

[...]

Density initialized from wave functions
 |    Cl Cu    Cl    Cu  |
 |    |Cl       Cl       |
 |  CuCu  CuCu   CuCu    |
 |    |CuCu    Cu    Cu  |
 |CuCuCuCu CCuCu CuCu    |
 |    |CuCu    Cu    Cu  |
 |    CuCu  CuCu   Cu    |
 |  Cu|  CuCuCuCuCuCuCu  |
 |    | Cu    Cu         |
 |  CuCu CuCCu CuCuCuCu  |
 |    |      Cu    Cu    |
 |Cu  |                  |
 |  CuCu CuCCu   CuCuCu  |
 |    |Cu      Cu  Cu    |
 |CuCuCu  CuCu   CuCu    |
 |    |Cl       Cl       |
 |    | Cu       Cl      |

[...]

     iter     time        total  log10-change:
                         energy  eigst   dens
iter:   1 04:42:25 -5751.494012  -2.28
iter:   2 04:43:37 -5749.817932  -2.43  -2.18
iter:   3 04:44:49 -5749.457579  -3.72  -2.61
iter:   4 04:46:00 -5749.442373c -3.81  -2.90
iter:   5 04:47:12 -5749.444899c -4.43  -3.08
iter:   6 04:48:24 -5749.426167c -4.87  -3.12
iter:   7 04:49:36 -5749.422439c -4.86  -3.40
iter:   8 04:50:49 -5749.422934c -5.00  -3.60
iter:   9 04:52:01 -5749.422349c -5.86  -3.84
iter:  10 04:53:14 -5749.422511c -6.28  -3.91
iter:  11 04:54:26 -5749.422161c -5.36  -4.02c
iter:  12 04:55:56 -5749.421986c -6.12  -3.99
iter:  13 04:57:22 -5749.422033c -6.50  -4.19c
iter:  14 04:59:03 -5749.421738c -6.16  -4.36c
iter:  15 05:00:17 -5749.421744c -7.49c -4.47c

[...]

Density initialized from wave functions
 |    Cl Cu    Cl    Cu  |
 |    |Cl       Cl       |
 |  CuCu  CuCu   CuCu    |
 |    |CuCu    Cu    Cu  |
 |CuCuCuCu  CuCu CuCu    |
 |    |CuCuCu  Cu    Cu  |
 |    CuCu  CuCu   Cu    |
 |  Cu|  CuCuCuCuCuCuCu  |
 |    | Cu    Cu         |
 |  CuCu CuCCu CuCuCuCu  |
 |    |      Cu    Cu    |
 |Cu  |                  |
 |  CuCu CuCCu   CuCuCu  |
 |    |Cu      Cu  Cu    |
 |CuCuCu  CuCu   CuCu    |
 |    |Cl       Cl       |
 |    | Cu       Cl      |

[...]

Density initialized from wave functions
 |    Cl Cu    Cl    Cu  |
 |    |Cl       Cl       |
 |  CuCu  Cu Cu  CuCu    |
 |    |  Cu    Cu    Cu  |
 |CuCuCuCu  CuCu   Cu    |
 |    |CuCuCu  CuCu  Cu  |
 |Cu  CuCu  CuCu   Cu    |
 |  Cu|  CuCuCuCuCuCuCu  |
 |    | Cu    Cu         |
 |  CuCu CuCCu CuCuCuCu  |
 |    |      Cu    Cu    |
 |Cu  |                  |
 |  CuCu CuCCu   CuCuCu  |
 |    |Cu      Cu  Cu    |
 |CuCuCu  CuCu   CuCu    |
 |    |Cl       Cl       |
 |    | Cu       Cl      |

[...]

Density initialized from wave functions
 |    |     Cl           |
 |    Cl Cu    Cl    Cu  |
 |    |         Cl       |
 |  CuCu  Cu Cu  CuCu    |
 |    |  Cu    Cu    Cu  |
 |CuCuCuCu  CuCu   Cu    |
 |    |CuCuCu  CuCu  Cu  |
 |Cu  CuCu  CuCu   Cu    |
 |  Cu|  CuCuCuCuCuCuCu  |
 |    | Cu    Cu         |
 |  CuCu CuCCu CuCuCuCu  |
 |    |      Cu    Cu    |
 |Cu  |                  |
 |  CuCu CuCCu   CuCuCu  |
 |    |Cu      Cu  Cu    |
 |CuCuCu  CuCu   CuCu    |
 |    |Cl       Cl       |
 |    | Cu       Cl      |

[...]

Density initialized from wave functions
 |    |     Cl           |
 |   Cl  Cu    Cl    Cu  |
 |    |         Cl       |
 |  CuCu  Cu Cu  CuCu    |
 |    |  Cu    Cu    Cu  |
 |CuCuCuCu  CuCu   Cu    |
 |    |CuCuCu  CuCu  Cu  |
 |Cu  CuCu  CuCu   Cu    |
 |  Cu|  CuCuCuCuCuCuCu  |
 |    | Cu    Cu         |
 |  CuCu CuCCu CuCuCuCu  |
 |    |      Cu    Cu    |
 |Cu  |                  |
 |  CuCu CuCCu   CuCuCu  |
 |    |Cu      Cu  Cu    |
 |CuCuCu  CuCu   CuCu    |
 |    |Cl       Cl       |
 |    | Cu       Cl      |

[...]

Density initialized from wave functions
 |    |     Cl           |
 |   Cl  Cu    Cl    Cu  |
 |    |      Cu          |
 |    |         Cl       |
 |  CuCu  CuCu   CuCu    |
 |    |  Cu  CuCu    Cu  |
 |CuCuCu    CuCu   Cu    |
 |    |CuCuCu  CuCu  Cu  |
 |Cu  Cu    CuCu   Cu    |
 |  Cu|  CuCuCuCuCuCuCu  |
 |    | Cu    Cu         |
 |  CuCu CuCCu CuCuCuCu  |
 |    |      Cu    Cu    |
 |Cu  |                  |
 |  CuCu CuCCu   CuCuCu  |
 |    |Cu      Cu  Cu    |
 |CuCuCu  CuCu   CuCu    |
 |    Cl        Cl       |
 |    | Cu       Cl      |

[...]

Density initialized from wave functions
 |    |     Cl           |
 |   Cl  Cu    Cl    Cu  |
 |    |      Cu          |
 |    |         Cl       |
 |  CuCu  CuCu   CuCu    |
 |    |  Cu  CuCu    Cu  |
 |CuCuCu    CuCu   Cu    |
 |    |CuCuCu  CuCu  Cu  |
 |Cu  Cu    CuCu   Cu    |
 |  Cu|  CuCuCuCuCuCuCu  |
 |    | Cu    Cu         |
 |  CuCu CuCCu CuCuCuCu  |
 |    |      Cu    Cu    |
 |Cu  |                  |
 |  CuCu CuCCu   CuCuCu  |
 |    |Cu      Cu  Cu    |
 |CuCuCu  CuCu   CuCu    |
 |    Cl        Cl       |
 |    | Cu        Cl     |

[...]

System changes: positions

Initializing position-dependent things.

Density initialized from wave functions
 |    |     Cl           |
 |   Cl  Cu    Cl    Cu  |
 |    |      Cu          |
 |    |          Cl      |
 |  CuCu  CuCu   CuCu    |
 |    |  Cu  CuCu    Cu  |
 |CuCuCu    CuCu   Cu    |
 |    |CuCuCu  CuCu  Cu  |
 |Cu  Cu    CuCu   Cu    |
 |  Cu|  CuCuCuCuCuCuCu  |
 |    | Cu    Cu         |
 |  CuCu CuCCu CuCuCuCu  |
 |    |      Cu    Cu    |
 |Cu  |                  |
 |  CuCu CuCCu   CuCuCu  |
 |    |Cu      Cu        |
 |CuCuCu  CuCu   CuCu    |
 |    Cl        Cl       |
 |    | Cu    Cu  Cl     |

Positions:
   0 Cu     2.885262    0.081605    9.981393    ( 0.0000,  0.0000,  0.0000)
   1 Cu     1.545865    1.850202   11.337507    ( 0.0000,  0.0000,  0.0000)
   2 Cu     4.221599    1.849683   11.355897    ( 0.0000,  0.0000,  0.0000)
   3 Cu     0.286208   -0.082620    9.980753    ( 0.0000,  0.0000,  0.0000)
   4 Cu     0.270940    0.003562   12.579692    ( 0.0000,  0.0000,  0.0000)
   5 Cu     4.201647    1.849807   13.931003    ( 0.0000,  0.0000,  0.0000)
   6 Cu     1.593321    1.850481   13.937641    ( 0.0000,  0.0000,  0.0000)
   7 Cu     2.899999   -0.003814   12.581942    ( 0.0000,  0.0000,  0.0000)
   8 Cu     2.895322   -0.004933   15.218967    ( 0.0000,  0.0000,  0.0000)
   9 Cu     1.586227    1.850416   16.556275    ( 0.0000,  0.0000,  0.0000)
  10 Cu     4.203055    1.851168   16.543187    ( 0.0000,  0.0000,  0.0000)
  11 Cu     0.277438    0.004674   15.215609    ( 0.0000,  0.0000,  0.0000)
  12 Cu     0.277525   -0.000598   17.846580    ( 0.0000,  0.0000,  0.0000)
  13 Cu     4.202904    1.845611   19.174536    ( 0.0000,  0.0000,  0.0000)
  14 Cu     1.586471    1.850592   19.186168    ( 0.0000,  0.0000,  0.0000)
  15 Cu     2.895346    0.000717   17.849733    ( 0.0000,  0.0000,  0.0000)
  16 Cu     2.889836   -0.000542   20.480884    ( 0.0000,  0.0000,  0.0000)
  17 Cu     1.587228    1.850500   21.829058    ( 0.0000,  0.0000,  0.0000)
  18 Cu     4.196199    1.846755   21.812070    ( 0.0000,  0.0000,  0.0000)
  19 Cu     0.276030    0.000729   20.459440    ( 0.0000,  0.0000,  0.0000)
  20 Cu     0.296078    0.000808   23.035724    ( 0.0000,  0.0000,  0.0000)
  21 Cu     4.211483    1.934690   24.413132    ( 0.0000,  0.0000,  0.0000)
  22 Cu     1.586779    1.850475   24.462583    ( 0.0000,  0.0000,  0.0000)
  23 Cu     2.911105   -0.000554   23.135800    ( 0.0000,  0.0000,  0.0000)
  24 Cu     2.885165    3.618407    9.980645    ( 0.0000,  0.0000,  0.0000)
  25 Cu     1.626092    5.551202   11.337445    ( 0.0000,  0.0000,  0.0000)
  26 Cu     4.185996    5.552071   11.256987    ( 0.0000,  0.0000,  0.0000)
  27 Cu     0.286110    3.782634    9.981502    ( 0.0000,  0.0000,  0.0000)
  28 Cu     0.272383    3.697201   12.582000    ( 0.0000,  0.0000,  0.0000)
  29 Cu     4.208290    5.552011   13.909474    ( 0.0000,  0.0000,  0.0000)
  30 Cu     1.579458    5.551480   13.937608    ( 0.0000,  0.0000,  0.0000)
  31 Cu     2.901448    3.704578   12.579627    ( 0.0000,  0.0000,  0.0000)
  32 Cu     2.895431    3.705676   15.215570    ( 0.0000,  0.0000,  0.0000)
  33 Cu     1.586646    5.551419   16.556256    ( 0.0000,  0.0000,  0.0000)
  34 Cu     4.203060    5.550707   16.539638    ( 0.0000,  0.0000,  0.0000)
  35 Cu     0.277547    3.696070   15.219000    ( 0.0000,  0.0000,  0.0000)
  36 Cu     0.277578    3.701721   17.849757    ( 0.0000,  0.0000,  0.0000)
  37 Cu     4.203032    5.556642   19.170999    ( 0.0000,  0.0000,  0.0000)
  38 Cu     1.586291    5.551595   19.186162    ( 0.0000,  0.0000,  0.0000)
  39 Cu     2.895391    3.700405   17.846537    ( 0.0000,  0.0000,  0.0000)
  40 Cu     2.896662    3.701728   20.459383    ( 0.0000,  0.0000,  0.0000)
  41 Cu     1.584776    5.551594   21.829055    ( 0.0000,  0.0000,  0.0000)
  42 Cu     4.197645    5.555483   21.809748    ( 0.0000,  0.0000,  0.0000)
  43 Cu     0.282837    3.700460   20.480909    ( 0.0000,  0.0000,  0.0000)
  44 Cu     0.260386    3.700442   23.135751    ( 0.0000,  0.0000,  0.0000)
  45 Cu     4.211387    5.468292   24.412359    ( 0.0000,  0.0000,  0.0000)
  46 Cu     1.583874    5.551501   24.462585    ( 0.0000,  0.0000,  0.0000)
  47 Cu     2.875334    3.701808   23.035617    ( 0.0000,  0.0000,  0.0000)
  48 Cu     6.836917    1.851067   11.256946    ( 0.0000,  0.0000,  0.0000)
  49 Cu     5.512686    0.000043    9.931792    ( 0.0000,  0.0000,  0.0000)
  50 Cu     5.512919   -0.000010   12.562588    ( 0.0000,  0.0000,  0.0000)
  51 Cu     6.815451    1.851013   13.909498    ( 0.0000,  0.0000,  0.0000)
  52 Cu     6.820811    1.849711   16.539661    ( 0.0000,  0.0000,  0.0000)
  53 Cu     5.512011   -0.000094   15.203732    ( 0.0000,  0.0000,  0.0000)
  54 Cu     5.511825    0.000083   17.833457    ( 0.0000,  0.0000,  0.0000)
  55 Cu     6.820740    1.855646   19.171035    ( 0.0000,  0.0000,  0.0000)
  56 Cu     6.825352    1.854517   21.809811    ( 0.0000,  0.0000,  0.0000)
  57 Cu     5.518953    0.000019   20.453117    ( 0.0000,  0.0000,  0.0000)
  58 Cu     5.470910    0.000293   23.054422    ( 0.0000,  0.0000,  0.0000)
  59 Cu     6.810263    1.767307   24.412453    ( 0.0000,  0.0000,  0.0000)
[...]
  65 Cu     5.511871    3.700907   15.203738    ( 0.0000,  0.0000,  0.0000)
  66 Cu     5.512123    3.701081   17.833473    ( 0.0000,  0.0000,  0.0000)
  67 Cu     6.820868    5.546608   19.174578    ( 0.0000,  0.0000,  0.0000)
  68 Cu     6.826803    5.547721   21.812141    ( 0.0000,  0.0000,  0.0000)
  69 Cu     5.504773    3.701021   20.453151    ( 0.0000,  0.0000,  0.0000)
  70 Cu     5.551595    3.701292   23.054534    ( 0.0000,  0.0000,  0.0000)
  71 Cu     6.810167    5.635674   24.413225    ( 0.0000,  0.0000,  0.0000)
  72 Cl     0.755954    3.698729   25.857581    ( 0.0000,  0.0000,  0.0000)
  73 Cl     4.598297    3.701735   25.944478    ( 0.0000,  0.0000,  0.0000)
  74 Cl     2.415048   -0.002269   25.857496    ( 0.0000,  0.0000,  0.0000)
  75 Cl     6.423696    0.000734   25.944613    ( 0.0000,  0.0000,  0.0000)
  76 Cl     6.341061    1.852842    8.537222    ( 0.0000,  0.0000,  0.0000)
  77 Cl     2.498751    1.849782    8.450894    ( 0.0000,  0.0000,  0.0000)
  78 Cl     0.672560    5.550782    8.450977    ( 0.0000,  0.0000,  0.0000)
  79 Cl     4.681240    5.553844    8.537213    ( 0.0000,  0.0000,  0.0000)

Unit cell:
           periodic     x           y           z      points  spacing
  1. axis:    yes    7.851007    0.000000    0.000000    45     0.1745
  2. axis:    yes    0.000000    7.402000    0.000000    42     0.1762
  3. axis:    yes    0.000000    0.000000   34.393512   196     0.1755

  Lengths:   7.851007   7.402000  34.393512
  Angles:   90.000000  90.000000  90.000000

Effective grid spacing dv^(1/3) = 0.1754

     iter     time        total  log10-change:
                         energy  eigst   dens
iter:   1 06:46:54 -5749.630451  -3.12
iter:   2 06:48:08 -5749.577184  -3.59  -2.78
iter:   3 06:49:22 -5749.549990c -4.10  -2.93
iter:   4 06:50:35 -5749.493785c -4.66  -2.94
iter:   5 06:51:49 -5749.489588c -4.56  -3.27
iter:   6 06:53:02 -5749.488510c -5.15  -3.56
iter:   7 06:54:16 -5749.488238c -5.96  -3.78
iter:   8 06:55:30 -5749.488206c -6.52  -3.87
iter:   9 06:56:56 -5749.488160c -5.80  -3.96
iter:  10 06:58:13 -5749.488021c -6.56  -4.20c
iter:  11 06:59:26 -5749.488099c -6.95  -4.32c
iter:  12 07:00:38 -5749.488004c -6.60  -4.26c
iter:  13 07:01:52 -5749.487971c -7.24  -4.59c
iter:  14 07:03:05 -5749.487970c -8.10c -4.82c

Converged after 14 iterations.

Dipole moment: (-81.082314, 0.149916, -0.002481) |e|*Ang

Energy contributions relative to reference atoms: (reference = -3341984.127726)

Kinetic:       +576.585905
Potential:     -630.582985
External:        +0.000000
XC:            -5694.163425
Entropy (-ST):   -0.677078
Local:           -0.988926
Free energy:   -5749.826509
Extrapolated:  -5749.487970

Showing only first 2 kpts
 Kpt  Band  Eigenvalues  Occupancy
  0   422      0.77162    0.76177
  0   423      0.82806    0.51835
  0   424      0.87535    0.35802
  0   425      0.91674    0.25196

  1   422      0.23065    1.98556
  1   423      0.37898    1.93790
  1   424      0.47703    1.84259
  1   425      0.50315    1.80029

Fermi level: 0.72304

No gap

Forces in eV/Ang:
  0 Cu   -0.00626   -0.00054    0.00811
  1 Cu    0.00307   -0.00002   -0.00521
  2 Cu   -0.00360    0.00060    0.01782
  3 Cu    0.00669    0.00105    0.00797
  4 Cu    0.00918   -0.00010   -0.00673
  5 Cu   -0.00366    0.00141    0.01261
  6 Cu    0.00001   -0.00014   -0.01559
  7 Cu   -0.00785   -0.00009   -0.00807
  8 Cu   -0.00048   -0.00109   -0.00195
  9 Cu   -0.00197    0.00007   -0.00648
 10 Cu    0.00250    0.00067    0.00684
 11 Cu    0.00264    0.00136    0.00048
 12 Cu    0.00245   -0.00102   -0.00449
 13 Cu    0.00259   -0.00077    0.00122
 14 Cu   -0.00139   -0.00032   -0.00671
 15 Cu    0.00009    0.00080    0.00049
 16 Cu    0.00275    0.00127    0.00463
 17 Cu   -0.00091    0.00031   -0.00318
 18 Cu    0.00894    0.00049    0.00712
 19 Cu   -0.00365   -0.00147   -0.01140
 20 Cu   -0.00376   -0.00057   -0.01755
 21 Cu    0.00606   -0.00243   -0.01180
 22 Cu    0.00002   -0.00054    0.00238
 23 Cu    0.00360    0.00087   -0.01112
 24 Cu   -0.00661    0.00103    0.00795
 25 Cu   -0.00302   -0.00003   -0.00512
 26 Cu   -0.00272   -0.00092    0.01046
 27 Cu    0.00633   -0.00055    0.00812
 28 Cu    0.00812   -0.00008   -0.00812
 29 Cu   -0.00260   -0.00123   -0.00266
 30 Cu   -0.00002   -0.00014   -0.01556
 31 Cu   -0.00891   -0.00009   -0.00667
 32 Cu   -0.00230    0.00135    0.00051
 33 Cu    0.00221    0.00009   -0.00644
 34 Cu    0.00026   -0.00045    0.00261
 35 Cu    0.00083   -0.00110   -0.00198
 36 Cu    0.00016    0.00080    0.00048
 37 Cu    0.00088    0.00053    0.00397
 38 Cu    0.00170   -0.00032   -0.00670
 39 Cu   -0.00221   -0.00102   -0.00444
 40 Cu    0.00363   -0.00147   -0.01139
 41 Cu    0.00122    0.00034   -0.00318
 42 Cu    0.00789   -0.00033    0.00846
 43 Cu   -0.00275    0.00126    0.00463
 44 Cu   -0.00355    0.00087   -0.01105
 45 Cu    0.00577    0.00196   -0.01196
 46 Cu   -0.00011   -0.00056    0.00235
 47 Cu    0.00394   -0.00056   -0.01756
 48 Cu    0.00290   -0.00092    0.01052
 49 Cu    0.00002    0.00054   -0.00627
 50 Cu   -0.00089   -0.00029    0.00343
 51 Cu    0.00268   -0.00124   -0.00266
 52 Cu   -0.00000   -0.00045    0.00260
 53 Cu   -0.00144    0.00033    0.00911
 54 Cu   -0.00205   -0.00007    0.00873
 55 Cu   -0.00061    0.00052    0.00392
 56 Cu   -0.00762   -0.00033    0.00841
 57 Cu   -0.00015    0.00013    0.01562
 58 Cu    0.00254    0.00001    0.00482
 59 Cu   -0.00580    0.00193   -0.01195
[...]
 65 Cu    0.00181    0.00032    0.00909
 66 Cu    0.00228   -0.00009    0.00871
 67 Cu   -0.00233   -0.00076    0.00118
 68 Cu   -0.00867    0.00049    0.00706
 69 Cu    0.00008    0.00013    0.01560
 70 Cu   -0.00259    0.00002    0.00474
 71 Cu   -0.00609   -0.00239   -0.01178
 72 Cl   -0.02374   -0.00187    0.01007
 73 Cl   -0.01462   -0.00032    0.01185
 74 Cl    0.02379   -0.00188    0.01011
 75 Cl    0.01471   -0.00032    0.01174
 76 Cl    0.02430    0.00186   -0.01284
 77 Cl    0.01411    0.00031   -0.01400
 78 Cl   -0.01395    0.00032   -0.01411
 79 Cl   -0.02421    0.00185   -0.01280