User:   thorkong@node026.cluster
Date:   Sun Oct  9 04:38:01 2022
Arch:   x86_64
Pid:    99521
Python: 3.10.5
gpaw:   /groups/kemi/thorkong/miniconda3/envs/gpaw22/lib/python3.10/site-packages/gpaw
_gpaw:  /groups/kemi/thorkong/miniconda3/envs/gpaw22/lib/python3.10/site-packages/
        _gpaw.cpython-310-x86_64-linux-gnu.so
ase:    /groups/kemi/thorkong/miniconda3/envs/gpaw22/lib/python3.10/site-packages/ase (version 3.22.1)
numpy:  /groups/kemi/thorkong/miniconda3/envs/gpaw22/lib/python3.10/site-packages/numpy (version 1.23.0)
scipy:  /groups/kemi/thorkong/miniconda3/envs/gpaw22/lib/python3.10/site-packages/scipy (version 1.8.1)
units:  Angstrom and eV
cores: 32
OpenMP: True
OMP_NUM_THREADS: 1

Input parameters:
  basis: dzp
  kpts: [4 4 1]
  mode: {ecut: 600.0,
         name: pw}
  xc: BEEF-vdW

System changes: positions, numbers, cell, pbc, initial_charges, initial_magmoms

Initialize ...

Cu-setup:
  name: Copper
  id: f1c4d45d90492f1bbfdcb091e8418fdf
  Z: 29.0
  valence: 11
  core: 18
  charge: 0.0
  file: /groups/kemi/thorkong/miniconda3/envs/gpaw22/share/gpaw/Cu.PBE.gz
  compensation charges: gauss, rc=0.33, lmax=2
  cutoffs: 2.06(filt), 2.43(core),
  valence states:
                energy  radius
    4s(1.00)    -4.609   1.164
    4p(0.00)    -0.698   1.164
    3d(10.00)    -5.039   1.058
    *s          22.603   1.164
    *p          26.513   1.164
    *d          22.172   1.058

  LCAO basis set for Cu:
    Name: dzp
    File: /groups/kemi/thorkong/miniconda3/envs/gpaw22/share/gpaw/Cu.dzp.basis.gz
    Number of radial functions: 5
    Number of spherical harmonics: 15
      l=0, rc=8.9688 Bohr: 4s-sz confined orbital
      l=2, rc=5.1719 Bohr: 3d-sz confined orbital
      l=0, rc=5.3281 Bohr: 4s-dz split-valence wave
      l=2, rc=3.1406 Bohr: 3d-dz split-valence wave
      l=1, rc=8.9688 Bohr: p-type Gaussian polarization

Cl-setup:
  name: Chlorine
  id: 726897f06f34e53cf8e33b5885a02604
  Z: 17.0
  valence: 7
  core: 10
  charge: 0.0
  file: /groups/kemi/thorkong/miniconda3/envs/gpaw22/share/gpaw/Cl.PBE.gz
  compensation charges: gauss, rc=0.25, lmax=2
  cutoffs: 1.40(filt), 1.49(core),
  valence states:
                energy  radius
    3s(2.00)   -20.689   0.794
    3p(5.00)    -8.594   0.794
    *s           6.523   0.794
    *p          18.617   0.794
    *d           0.000   0.794

  LCAO basis set for Cl:
    Name: dzp
    File: /groups/kemi/thorkong/miniconda3/envs/gpaw22/share/gpaw/Cl.dzp.basis.gz
    Number of radial functions: 5
    Number of spherical harmonics: 13
      l=0, rc=5.1719 Bohr: 3s-sz confined orbital
      l=1, rc=6.2656 Bohr: 3p-sz confined orbital
      l=0, rc=2.8281 Bohr: 3s-dz split-valence wave
      l=1, rc=3.5156 Bohr: 3p-dz split-valence wave
      l=2, rc=6.2656 Bohr: d-type Gaussian polarization

Reference energy: -2531597.994586

Spin-paired calculation

Convergence criteria:
 Maximum [total energy] change in last 3 cyles: 0.0005 eV / electron
 Maximum integral of absolute [dens]ity change: 0.0001 electrons / valence electron
 Maximum integral of absolute [eigenst]ate change: 4e-08 eV^2 / valence electron
 Maximum number of scf [iter]ations: 333
 (Square brackets indicate name in SCF output, whereas a 'c' in
 the SCF output indicates the quantity has converged.)

Symmetries present (total): 1

  ( 1  0  0)
  ( 0  1  0)
  ( 0  0  1)

16 k-points: 4 x 4 x 1 Monkhorst-Pack grid
8 k-points in the irreducible part of the Brillouin zone
       k-points in crystal coordinates                weights
   0:     0.12500000   -0.37500000    0.00000000          2/16
   1:     0.12500000   -0.12500000    0.00000000          2/16
   2:     0.12500000    0.12500000    0.00000000          2/16
   3:     0.12500000    0.37500000    0.00000000          2/16
   4:     0.37500000   -0.37500000    0.00000000          2/16
   5:     0.37500000   -0.12500000    0.00000000          2/16
   6:     0.37500000    0.12500000    0.00000000          2/16
   7:     0.37500000    0.37500000    0.00000000          2/16

Wave functions: Plane wave expansion
  Cutoff energy: 600.000 eV
  Number of coefficients (min, max): 63070, 63184
  Pulay-stress correction: 0.000000 eV/Ang^3 (de/decut=0.000000)
  Using FFTW library
  ScaLapack parameters: grid=2x2, blocksize=64
  Wavefunction extrapolation:
    Improved wavefunction reuse through dual PAW basis

Occupation numbers: Fermi-Dirac: width=0.1000 eV

Eigensolver
   Davidson(niter=2)

Densities:
  Coarse grid: 45*48*175 grid
  Fine grid: 90*96*350 grid
  Total Charge: 0.000000

Density mixing:
  Method: separate
  Backend: pulay
  Linear mixing parameter: 0.05
  Mixing with 5 old densities
  Damping of long wave oscillations: 50

Hamiltonian:
  XC and Coulomb potentials evaluated on a 90*96*350 grid
  Using the BEEF-vdW Exchange-Correlation functional
  External potential:
    NoExternalPotential

XC parameters: BEEF-vdW with 2 nearest neighbor stencil

Total number of cores used: 32
Parallelization over k-points: 8
Domain decomposition: 1 x 1 x 4
                      2 x 2 x 8 (xc only)

Number of atoms: 62
Number of atomic orbitals: 914
Number of bands in calculation: 394
Number of valence electrons: 650
Bands to converge: occupied

... initialized

Initializing position-dependent things.

Density initialized from atomic densities
Creating initial wave functions:
  394 bands from LCAO basis set

               Cl         Cl
                   Cl

          CCl   Cu     Cu

         Cu   CCu   CCu    Cu
       Cu    CCu   CCu   Cu

          CCu   CuCu   CCu
         Cu   CCu   CCu    Cu

       Cu    CCu   CCu   Cu
          CCu   CuCu   CCu

[...]

           Cu     Cu   CCu

               Cl
        Cl         Cl

Positions:
   0 Cu     1.892633    1.870330   10.012793    ( 0.0000,  0.0000,  0.0000)
   1 Cu     0.572010    0.534523   11.832317    ( 0.0000,  0.0000,  0.0000)
   2 Cu     3.191641    0.525686   11.868131    ( 0.0000,  0.0000,  0.0000)
   3 Cu     1.877946    1.840547   13.695548    ( 0.0000,  0.0000,  0.0000)
   4 Cu     0.571769    0.536085   15.556968    ( 0.0000,  0.0000,  0.0000)
   5 Cu     3.197225    0.525334   15.544470    ( 0.0000,  0.0000,  0.0000)
   6 Cu     1.890055    1.842716   17.392390    ( 0.0000,  0.0000,  0.0000)
   7 Cu     0.585122    0.567115   19.238296    ( 0.0000,  0.0000,  0.0000)
   8 Cu     3.205022    0.527415   19.219261    ( 0.0000,  0.0000,  0.0000)
   9 Cu     0.556937    3.140407   11.836341    ( 0.0000,  0.0000,  0.0000)
  10 Cu     0.564579    3.137895   15.548894    ( 0.0000,  0.0000,  0.0000)
  11 Cu     0.567966    3.158453   19.252095    ( 0.0000,  0.0000,  0.0000)
  12 Cu     7.128070    1.829430    9.929086    ( 0.0000,  0.0000,  0.0000)
  13 Cu     5.808131    0.512956   11.829459    ( 0.0000,  0.0000,  0.0000)
  14 Cu     7.114887    1.823803   13.692460    ( 0.0000,  0.0000,  0.0000)
  15 Cu     5.807797    0.517631   15.551598    ( 0.0000,  0.0000,  0.0000)
  16 Cu     7.098289    1.834535   17.412502    ( 0.0000,  0.0000,  0.0000)
  17 Cu     5.824983    0.524129   19.326481    ( 0.0000,  0.0000,  0.0000)
  18 Cu     4.507640    1.844206   10.037414    ( 0.0000,  0.0000,  0.0000)
  19 Cu     4.494687    4.451306   10.029770    ( 0.0000,  0.0000,  0.0000)
  20 Cu     3.191908    3.152966   11.865483    ( 0.0000,  0.0000,  0.0000)
  21 Cu     5.828552    3.128843   11.851959    ( 0.0000,  0.0000,  0.0000)
  22 Cu     4.508645    1.835435   13.700187    ( 0.0000,  0.0000,  0.0000)
  23 Cu     4.498243    4.454319   13.694427    ( 0.0000,  0.0000,  0.0000)
  24 Cu     3.192962    3.139821   15.555343    ( 0.0000,  0.0000,  0.0000)
  25 Cu     5.818116    3.146323   15.539630    ( 0.0000,  0.0000,  0.0000)
  26 Cu     4.521936    1.816517   17.400462    ( 0.0000,  0.0000,  0.0000)
  27 Cu     4.499272    4.441210   17.384479    ( 0.0000,  0.0000,  0.0000)
  28 Cu     3.196603    3.142754   19.220306    ( 0.0000,  0.0000,  0.0000)
  29 Cu     5.819865    3.128883   19.247995    ( 0.0000,  0.0000,  0.0000)
  30 Cu     1.871272    4.465209   10.001666    ( 0.0000,  0.0000,  0.0000)
  31 Cu     1.866466    7.069659    9.923817    ( 0.0000,  0.0000,  0.0000)
  32 Cu     0.592816    5.759527   11.837283    ( 0.0000,  0.0000,  0.0000)
  33 Cu     3.169491    5.777270   11.848912    ( 0.0000,  0.0000,  0.0000)
  34 Cu     1.873116    4.447974   13.709977    ( 0.0000,  0.0000,  0.0000)
  35 Cu     1.883612    7.076233   13.697849    ( 0.0000,  0.0000,  0.0000)
  36 Cu     0.576232    5.770547   15.557145    ( 0.0000,  0.0000,  0.0000)
  37 Cu     3.182652    5.758760   15.549444    ( 0.0000,  0.0000,  0.0000)
  38 Cu     1.862586    4.465467   17.397621    ( 0.0000,  0.0000,  0.0000)
  39 Cu     1.883200    7.081076   17.420692    ( 0.0000,  0.0000,  0.0000)
  40 Cu     0.563053    5.765110   19.321274    ( 0.0000,  0.0000,  0.0000)
  41 Cu     3.183502    5.749848   19.213170    ( 0.0000,  0.0000,  0.0000)
  42 Cu     7.123492    4.435536    9.997800    ( 0.0000,  0.0000,  0.0000)
  43 Cu     7.106062    7.027021   10.012133    ( 0.0000,  0.0000,  0.0000)
  44 Cu     5.801334    5.751271   11.857583    ( 0.0000,  0.0000,  0.0000)
  45 Cu     7.126820    4.456070   13.700604    ( 0.0000,  0.0000,  0.0000)
  46 Cu     7.119358    7.058093   13.692718    ( 0.0000,  0.0000,  0.0000)
  47 Cu     5.813408    5.753489   15.554113    ( 0.0000,  0.0000,  0.0000)
  48 Cu     7.134658    4.453732   17.413433    ( 0.0000,  0.0000,  0.0000)
  49 Cu     7.119104    7.059620   17.417764    ( 0.0000,  0.0000,  0.0000)
  50 Cu     5.798741    5.723476   19.237584    ( 0.0000,  0.0000,  0.0000)
  51 Cu     4.486473    7.066632   10.031360    ( 0.0000,  0.0000,  0.0000)
  52 Cu     4.493980    7.068718   13.704984    ( 0.0000,  0.0000,  0.0000)
  53 Cu     4.499646    7.068443   17.381406    ( 0.0000,  0.0000,  0.0000)
  54 Cl     4.466674    4.398821   21.470908    ( 0.0000,  0.0000,  0.0000)
  55 Cl     3.224589    3.195228    7.779285    ( 0.0000,  0.0000,  0.0000)
  56 Cl     1.939171    1.882562   21.468272    ( 0.0000,  0.0000,  0.0000)
  57 Cl     5.752439    5.711140    7.781981    ( 0.0000,  0.0000,  0.0000)
  58 Cl     2.259379    7.049276   21.541592    ( 0.0000,  0.0000,  0.0000)
  59 Cl     5.432240    0.544205    7.709174    ( 0.0000,  0.0000,  0.0000)
  60 Cl     0.925464    0.523913    7.702561    ( 0.0000,  0.0000,  0.0000)
  61 Cl     6.765795    7.070338   21.548129    ( 0.0000,  0.0000,  0.0000)

Unit cell:
           periodic     x           y           z      points  spacing
  1. axis:    yes    7.851007    0.000000    0.000000    45     0.1655
  2. axis:    yes    2.617002    7.851007    0.000000    48     0.1636
  3. axis:    yes    0.000000    0.000000   30.683867   175     0.1753

  Lengths:   7.851007   8.275688  30.683867
  Angles:   90.000000  90.000000  71.565053

Effective grid spacing dv^(1/3) = 0.1710

     iter     time        total  log10-change:
                         energy  eigst   dens
iter:   1 04:44:11 -4572.710095
iter:   2 04:45:12 -4468.818887  +0.39  -0.83
iter:   3 04:46:22 -4402.157437  -0.58  -1.11
iter:   4 04:47:20 -4388.274241  -1.73  -1.30
iter:   5 04:48:16 -4381.095341  -1.50  -1.40
iter:   6 04:49:20 -4380.811505  -2.13  -1.52
iter:   7 04:50:19 -4380.400372  -2.88  -1.56
iter:   8 04:51:27 -4382.739010  -1.72  -1.57
iter:   9 04:52:38 -4381.821016  -2.19  -1.72
iter:  10 04:53:36 -4380.003785  -2.70  -1.83
iter:  11 04:54:34 -4379.661511  -2.71  -1.91
iter:  12 04:55:43 -4379.451777  -2.65  -2.01
iter:  13 04:56:48 -4378.754960  -2.66  -2.10
iter:  14 04:58:00 -4378.747745  -3.65  -2.45
iter:  15 04:58:56 -4378.690807c -3.99  -2.41
iter:  16 04:59:53 -4378.651125c -4.03  -2.47
iter:  17 05:00:49 -4378.607585c -3.97  -2.54
iter:  18 05:02:07 -4378.599818c -4.30  -2.62
iter:  19 05:03:14 -4378.574236c -4.05  -2.73
iter:  20 05:04:19 -4378.575213c -4.77  -3.04
iter:  21 05:05:25 -4378.567270c -4.79  -3.18
iter:  22 05:06:40 -4378.568007c -5.47  -3.43
iter:  23 05:07:48 -4378.568489c -5.35  -3.51
iter:  24 05:08:45 -4378.567889c -6.04  -3.67
iter:  25 05:09:42 -4378.567496c -5.92  -3.72
iter:  26 05:10:33 -4378.567307c -6.22  -3.77
iter:  27 05:11:34 -4378.567353c -6.66  -3.98
iter:  28 05:12:31 -4378.567344c -6.49  -4.03c
iter:  29 05:13:32 -4378.567222c -6.78  -4.24c
iter:  30 05:14:22 -4378.567219c -6.87  -4.41c
iter:  31 05:15:19 -4378.567243c -7.28  -4.57c
iter:  32 05:16:15 -4378.567280c -7.40c -4.63c

Converged after 32 iterations.

Dipole moment: (-15.309972, -37.966590, 0.000097) |e|*Ang

Energy contributions relative to reference atoms: (reference = -2531597.994586)

Kinetic:       +411.251180
Potential:     -457.733092
External:        +0.000000
XC:            -4330.912554
Entropy (-ST):   -0.660352
Local:           -0.842638
Free energy:   -4378.897456
Extrapolated:  -4378.567280

Showing only first 2 kpts
 Kpt  Band  Eigenvalues  Occupancy
  0   323     -1.67944    1.93184
  0   324     -1.50945    1.67627
  0   325     -1.44225    1.45120
  0   326     -1.29235    0.74263

  1   323     -1.58067    1.82693
  1   324     -1.52058    1.70536
  1   325     -1.41973    1.35716
  1   326     -1.34700    1.00998

Fermi level: -1.34501

No gap

Forces in eV/Ang:
  0 Cu   -0.03275   -0.17679   -0.92908
  1 Cu    0.01032   -0.01267   -0.08162
  2 Cu   -0.00606   -0.00530   -0.16082
  3 Cu    0.00800   -0.00815    0.03253
  4 Cu    0.00021   -0.01933   -0.01971
  5 Cu    0.00080   -0.01902   -0.08711
  6 Cu    0.03188   -0.06089    0.08657
  7 Cu   -0.01849   -0.20994    0.93011
  8 Cu    0.01267   -0.11115    0.97900
  9 Cu    0.01682    0.00538   -0.16478
 10 Cu    0.02724    0.01448   -0.03535
 11 Cu    0.18773   -0.13505    0.40845
 12 Cu   -0.00820   -0.12010   -0.45289
 13 Cu   -0.00628    0.00687   -0.07039
 14 Cu    0.01386    0.01051    0.05901
 15 Cu    0.00172    0.01477   -0.04315
 16 Cu    0.01179    0.00022    0.17705
 17 Cu   -0.03020   -0.11725    0.44342
 18 Cu    0.01701   -0.14886   -0.98059
 19 Cu    0.00828    0.00972   -0.92041
 20 Cu    0.02796   -0.04875   -0.11727
 21 Cu   -0.03976   -0.00677   -0.15946
 22 Cu   -0.02241   -0.02911    0.05794
 23 Cu   -0.00603   -0.00110    0.03253
 24 Cu    0.00616    0.00128   -0.03324
 25 Cu   -0.03380   -0.01862   -0.03659
 26 Cu   -0.03337   -0.00268    0.15680
 27 Cu   -0.02786    0.04898    0.11594
 28 Cu   -0.00817   -0.00965    0.91884
 29 Cu   -0.18719    0.13890    0.44046
 30 Cu    0.18777   -0.13969   -0.44333
 31 Cu    0.02963    0.11936   -0.44647
 32 Cu   -0.01053   -0.00023   -0.17658
 33 Cu    0.03218    0.00355   -0.15523
 34 Cu    0.03411    0.01791    0.03665
 35 Cu   -0.00228   -0.01352    0.04330
 36 Cu   -0.01323   -0.01139   -0.05900
 37 Cu    0.02203    0.02922   -0.05810
 38 Cu    0.04094    0.00632    0.16059
 39 Cu    0.00617   -0.00615    0.06993
 40 Cu    0.00839    0.11808    0.45094
 41 Cu   -0.01651    0.14904    0.97976
 42 Cu   -0.18861    0.13636   -0.41160
 43 Cu    0.01957    0.20997   -0.93361
 44 Cu   -0.03220    0.06112   -0.08765
 45 Cu   -0.02793   -0.01345    0.03574
 46 Cu    0.00013    0.01910    0.01908
 47 Cu   -0.00843    0.00871   -0.03293
 48 Cu   -0.01838   -0.00505    0.16531
 49 Cu   -0.01022    0.01260    0.08093
 50 Cu    0.03141    0.17726    0.92577
 51 Cu   -0.01367    0.11151   -0.98044
 52 Cu   -0.00076    0.01930    0.08712
 53 Cu    0.00589    0.00540    0.16295
 54 Cl    0.29098   -0.35675   -1.82572
 55 Cl   -0.29068    0.35676    1.82389
 56 Cl   -0.30154    0.34907   -1.81706
 57 Cl    0.30126   -0.34905    1.81529
 58 Cl    0.01990    0.03457   -1.84094
 59 Cl   -0.02089   -0.03402    1.83886
 60 Cl    0.02762    0.02268    1.83269
 61 Cl   -0.02652   -0.02326   -1.83472

System changes: positions

[...]

Density initialized from wave functions

[...]

          CCl   Cu     Cu
         Cu   CCu   CCu    Cu

[...]

       Cu    CCu   CCu   Cu
           Cu     Cu   CCu

[...]

                Cl         Cl

                    Cl
           Cl    Cu     Cu
               Cu    Cu     Cu
         Cu    Cu     Cu
       Cu    CCu    Cu    Cu

           Cu    CCu    Cu
         Cu    Cu    CCu    Cu

       Cu    CCu    Cu    Cu
           Cu    CCu    Cu

         Cu    Cu    CCu    Cu
             Cu     Cu    Cu
       Cu     Cu    Cu
           Cu     Cu    Cu
               Cl

[...]

          CCl   Cu     Cu
         Cu   CCu   CCu    Cu

       Cu    CCu   CCu   Cu
          CCu   CuCu   CCu

[...]

          CCu   CuCu   CCu
         Cu   CCu   CCu    Cu

       Cu    CCu   CCu   Cu
           Cu     Cu   CCu

[...]

          CCl   Cu     Cu
         Cu   CCu   CuCu   Cu
       Cu     Cu    Cu
             Cu    Cu    Cu
          CCu   CCu    CCu

[...]

          CCu    CCu   CCu
         Cu    Cu    Cu
              Cu    Cu     Cu
       Cu   CuCu   CCu   Cu
           Cu     Cu   CCu

[...]

               Cl         Cl
                   Cl

          CCl   Cu     Cu
         Cu   CCu   CuCu   Cu
       Cu           Cu
             CCu   Cu    Cu
          CCu   CCu    CCu

         Cu   CCu   CCu    Cu
       Cu    CCu   CCu   Cu

          CCu    CCu   CCu
         Cu    Cu   CCu
              Cu           Cu
       Cu   CuCu   CCu   Cu
           Cu     Cu   CCu

               Cl
        Cl         Cl

[...]

System changes: positions

Initializing position-dependent things.

Density initialized from wave functions

[...]

                    Cl
           Cl    Cu     Cu
               Cu    Cu     Cu
         Cu    Cu     Cu
       Cu    CCu    Cu    Cu

           Cu    CCu    Cu
         Cu    Cu    CCu    Cu

       Cu    CCu    Cu    Cu
           Cu    CCu    Cu

         Cu    Cu    CCu    Cu
             Cu     Cu    Cu
       Cu     Cu    Cu
           Cu     Cu    Cu
               Cl

        Cl         Cl

Positions:
   0 Cu     1.846661    1.871108    9.959509    ( 0.0000,  0.0000,  0.0000)
   1 Cu     0.581331    0.544131   11.868975    ( 0.0000,  0.0000,  0.0000)
   2 Cu     3.189873    0.524793   11.846756    ( 0.0000,  0.0000,  0.0000)
   3 Cu     1.884169    1.843788   13.700524    ( 0.0000,  0.0000,  0.0000)
   4 Cu     0.575947    0.539173   15.557125    ( 0.0000,  0.0000,  0.0000)
   5 Cu     3.195966    0.523905   15.530177    ( 0.0000,  0.0000,  0.0000)
   6 Cu     1.897514    1.823565   17.403966    ( 0.0000,  0.0000,  0.0000)
   7 Cu     0.546542    0.564282   19.293103    ( 0.0000,  0.0000,  0.0000)
   8 Cu     3.162159    0.535984   19.217559    ( 0.0000,  0.0000,  0.0000)
   9 Cu     0.559834    3.137093   11.831716    ( 0.0000,  0.0000,  0.0000)
  10 Cu     0.571450    3.136948   15.551513    ( 0.0000,  0.0000,  0.0000)
  11 Cu     0.546422    3.197960   19.208440    ( 0.0000,  0.0000,  0.0000)
  12 Cu     7.086215    1.841366   10.000984    ( 0.0000,  0.0000,  0.0000)
  13 Cu     5.797741    0.507219   11.865936    ( 0.0000,  0.0000,  0.0000)
  14 Cu     7.112838    1.836965   13.709650    ( 0.0000,  0.0000,  0.0000)
  15 Cu     5.803186    0.526143   15.543291    ( 0.0000,  0.0000,  0.0000)
  16 Cu     7.095314    1.827531   17.423515    ( 0.0000,  0.0000,  0.0000)
  17 Cu     5.778393    0.529525   19.258821    ( 0.0000,  0.0000,  0.0000)
  18 Cu     4.465750    1.843978   10.034362    ( 0.0000,  0.0000,  0.0000)
  19 Cu     4.501958    4.452408    9.940494    ( 0.0000,  0.0000,  0.0000)
  20 Cu     3.197628    3.133103   11.841984    ( 0.0000,  0.0000,  0.0000)
  21 Cu     5.796179    3.136850   11.847211    ( 0.0000,  0.0000,  0.0000)
  22 Cu     4.501196    1.834918   13.710267    ( 0.0000,  0.0000,  0.0000)
  23 Cu     4.495178    4.453734   13.693893    ( 0.0000,  0.0000,  0.0000)
  24 Cu     3.195858    3.140927   15.555084    ( 0.0000,  0.0000,  0.0000)
  25 Cu     5.808308    3.151404   15.545833    ( 0.0000,  0.0000,  0.0000)
  26 Cu     4.492836    1.826358   17.412453    ( 0.0000,  0.0000,  0.0000)
  27 Cu     4.493475    4.461798   17.407385    ( 0.0000,  0.0000,  0.0000)
  28 Cu     3.189288    3.142420   19.309812    ( 0.0000,  0.0000,  0.0000)
  29 Cu     5.838605    3.087816   19.224213    ( 0.0000,  0.0000,  0.0000)
  30 Cu     1.852723    4.506625   10.025187    ( 0.0000,  0.0000,  0.0000)
  31 Cu     1.912621    7.064966    9.990714    ( 0.0000,  0.0000,  0.0000)
  32 Cu     0.595912    5.766988   11.825870    ( 0.0000,  0.0000,  0.0000)
  33 Cu     3.198166    5.768351   11.836910    ( 0.0000,  0.0000,  0.0000)
  34 Cu     1.882700    4.443326   13.703217    ( 0.0000,  0.0000,  0.0000)
  35 Cu     1.887786    7.068707   13.705289    ( 0.0000,  0.0000,  0.0000)
  36 Cu     0.578156    5.757847   15.539147    ( 0.0000,  0.0000,  0.0000)
  37 Cu     3.189817    5.759921   15.538556    ( 0.0000,  0.0000,  0.0000)
  38 Cu     1.894955    4.457760   17.401870    ( 0.0000,  0.0000,  0.0000)
  39 Cu     1.893167    7.087689   17.383051    ( 0.0000,  0.0000,  0.0000)
  40 Cu     0.604864    5.753274   19.248208    ( 0.0000,  0.0000,  0.0000)
  41 Cu     3.225078    5.750879   19.214825    ( 0.0000,  0.0000,  0.0000)
  42 Cu     7.145068    4.396430   10.040887    ( 0.0000,  0.0000,  0.0000)
  43 Cu     7.144494    7.030126    9.957462    ( 0.0000,  0.0000,  0.0000)
  44 Cu     5.793654    5.770899   11.845517    ( 0.0000,  0.0000,  0.0000)
  45 Cu     7.119618    4.457668   13.697501    ( 0.0000,  0.0000,  0.0000)
  46 Cu     7.115139    7.055585   13.691557    ( 0.0000,  0.0000,  0.0000)
  47 Cu     5.806828    5.750993   15.548139    ( 0.0000,  0.0000,  0.0000)
  48 Cu     7.131147    4.457669   17.417571    ( 0.0000,  0.0000,  0.0000)
  49 Cu     7.109534    7.050563   17.380154    ( 0.0000,  0.0000,  0.0000)
  50 Cu     5.844258    5.723386   19.290934    ( 0.0000,  0.0000,  0.0000)
  51 Cu     4.528977    7.058556   10.032186    ( 0.0000,  0.0000,  0.0000)
  52 Cu     4.495009    7.070845   13.718557    ( 0.0000,  0.0000,  0.0000)
  53 Cu     4.501164    7.070012   17.402494    ( 0.0000,  0.0000,  0.0000)
  54 Cl     4.766400    4.076517   21.026536    ( 0.0000,  0.0000,  0.0000)
  55 Cl     2.925493    3.516752    8.223496    ( 0.0000,  0.0000,  0.0000)
  56 Cl     1.577244    2.214464   21.031422    ( 0.0000,  0.0000,  0.0000)
  57 Cl     6.113621    5.380506    8.218438    ( 0.0000,  0.0000,  0.0000)
  58 Cl     2.257654    6.916786   20.992292    ( 0.0000,  0.0000,  0.0000)
  59 Cl     5.434169    0.677201    8.257767    ( 0.0000,  0.0000,  0.0000)
  60 Cl     0.970269    0.378068    8.247372    ( 0.0000,  0.0000,  0.0000)
  61 Cl     6.720882    7.216355   21.002431    ( 0.0000,  0.0000,  0.0000)

Unit cell:
           periodic     x           y           z      points  spacing
  1. axis:    yes    7.851007    0.000000    0.000000    45     0.1655
  2. axis:    yes    2.617002    7.851007    0.000000    48     0.1636
  3. axis:    yes    0.000000    0.000000   30.683867   175     0.1753

  Lengths:   7.851007   8.275688  30.683867
  Angles:   90.000000  90.000000  71.565053

Effective grid spacing dv^(1/3) = 0.1710

     iter     time        total  log10-change:
                         energy  eigst   dens
iter:   1 08:39:26 -4383.910786  -3.38
iter:   2 08:40:17 -4383.894516  -4.40  -3.11
iter:   3 08:41:12 -4383.894067c -5.02  -3.38
iter:   4 08:42:08 -4383.892091c -5.53  -3.42
iter:   5 08:43:12 -4383.891648c -4.92  -3.56
iter:   6 08:44:03 -4383.891237c -5.64  -3.86
iter:   7 08:45:00 -4383.891306c -5.87  -4.00
iter:   8 08:46:07 -4383.891256c -6.92  -4.13c
iter:   9 08:47:21 -4383.891177c -6.19  -4.28c
iter:  10 08:48:31 -4383.891170c -6.87  -4.51c
iter:  11 08:49:51 -4383.891155c -7.29  -4.56c
iter:  12 08:50:48 -4383.891152c -7.49c -4.65c

Converged after 12 iterations.

Dipole moment: (-20.212137, -37.298091, 0.000333) |e|*Ang

Energy contributions relative to reference atoms: (reference = -2531597.994586)

Kinetic:       +472.809976
Potential:     -507.994076
External:        +0.000000
XC:            -4347.622407
Entropy (-ST):   -0.580191
Local:           -0.794550
Free energy:   -4384.181248
Extrapolated:  -4383.891152

Showing only first 2 kpts
 Kpt  Band  Eigenvalues  Occupancy
  0   323     -0.70369    1.94120
  0   324     -0.58197    1.81438
  0   325     -0.43236    1.37294
  0   326     -0.32621    0.86197

  1   323     -0.60883    1.85492
  1   324     -0.53122    1.70948
  1   325     -0.37920    1.12535
  1   326     -0.32098    0.83643

Fermi level: -0.35399

No gap

Forces in eV/Ang:
  0 Cu   -0.01714    0.00356   -0.00629
  1 Cu   -0.00451   -0.00663   -0.01582
  2 Cu    0.00023    0.00090   -0.00979
  3 Cu    0.00233    0.01025   -0.00164
  4 Cu    0.00319    0.00603   -0.00391
  5 Cu   -0.00614   -0.00901    0.00098
  6 Cu   -0.00587   -0.01006    0.01578
  7 Cu   -0.01518    0.00574    0.00640
  8 Cu    0.00031   -0.01242   -0.00021
  9 Cu   -0.00852   -0.00191    0.00082
 10 Cu    0.00501    0.00887    0.00126
 11 Cu   -0.02336   -0.00380    0.00583
 12 Cu   -0.01818    0.00454    0.00184
 13 Cu    0.00300    0.00045   -0.01923
 14 Cu   -0.00945   -0.00378    0.00072
 15 Cu   -0.00504   -0.00987    0.00151
 16 Cu   -0.01023    0.00107   -0.00577
 17 Cu   -0.01725    0.00512    0.00081
 18 Cu   -0.00244   -0.01200   -0.00199
 19 Cu    0.00492    0.00191    0.00647
 20 Cu   -0.00330   -0.00628   -0.01934
 21 Cu   -0.00208    0.01471   -0.00513
 22 Cu   -0.00393   -0.00661    0.00251
 23 Cu    0.00407   -0.00670   -0.00204
 24 Cu   -0.00406    0.00699    0.00179
 25 Cu   -0.00480   -0.00154    0.00586
 26 Cu   -0.00395    0.01431   -0.00121
 27 Cu    0.00305    0.00622    0.01861
 28 Cu   -0.00488   -0.00179   -0.01018
 29 Cu    0.01648    0.00734    0.00388
 30 Cu   -0.01640   -0.00714   -0.00596
 31 Cu    0.01728   -0.00537   -0.00260
 32 Cu    0.01005   -0.00099    0.00530
 33 Cu    0.00386   -0.01426    0.00013
 34 Cu    0.00485    0.00160   -0.00615
 35 Cu    0.00503    0.00990   -0.00106
 36 Cu    0.00940    0.00384   -0.00081
 37 Cu    0.00378    0.00657   -0.00283
 38 Cu    0.00210   -0.01448    0.00440
 39 Cu   -0.00281   -0.00052    0.01828
 40 Cu    0.01838   -0.00443   -0.00443
 41 Cu    0.00254    0.01200    0.00006
 42 Cu    0.02281    0.00436   -0.00772
 43 Cu    0.01510   -0.00518   -0.00815
 44 Cu    0.00598    0.01038   -0.01685
 45 Cu   -0.00513   -0.00857   -0.00129
 46 Cu   -0.00350   -0.00585    0.00418
 47 Cu   -0.00230   -0.01009    0.00198
 48 Cu    0.00877    0.00195   -0.00112
 49 Cu    0.00452    0.00667    0.01479
 50 Cu    0.01727   -0.00398    0.00479
 51 Cu   -0.00022    0.01249   -0.00182
 52 Cu    0.00629    0.00920   -0.00097
 53 Cu   -0.00036   -0.00100    0.00910
 54 Cl   -0.00613    0.00596   -0.00426
 55 Cl    0.00603   -0.00553    0.00630
 56 Cl   -0.00504   -0.00558   -0.00312
 57 Cl    0.00526    0.00514    0.00542
 58 Cl   -0.01775   -0.01740    0.01349
 59 Cl    0.01759    0.01731   -0.01196
 60 Cl    0.00621   -0.01940   -0.01897
 61 Cl   -0.00585    0.01973    0.02049