User:   thorkong@node030.cluster
Date:   Sat Oct  8 21:58:30 2022
Arch:   x86_64
Pid:    5447
Python: 3.10.5
gpaw:   /groups/kemi/thorkong/miniconda3/envs/gpaw22/lib/python3.10/site-packages/gpaw
_gpaw:  /groups/kemi/thorkong/miniconda3/envs/gpaw22/lib/python3.10/site-packages/
        _gpaw.cpython-310-x86_64-linux-gnu.so
ase:    /groups/kemi/thorkong/miniconda3/envs/gpaw22/lib/python3.10/site-packages/ase (version 3.22.1)
numpy:  /groups/kemi/thorkong/miniconda3/envs/gpaw22/lib/python3.10/site-packages/numpy (version 1.23.0)
scipy:  /groups/kemi/thorkong/miniconda3/envs/gpaw22/lib/python3.10/site-packages/scipy (version 1.8.1)
units:  Angstrom and eV
cores: 32
OpenMP: True
OMP_NUM_THREADS: 1

Input parameters:
  basis: dzp
  kpts: [4 4 1]
  mode: {ecut: 600.0,
         name: pw}
  xc: BEEF-vdW

System changes: positions, numbers, cell, pbc, initial_charges, initial_magmoms

Initialize ...

Cu-setup:
  name: Copper
  id: f1c4d45d90492f1bbfdcb091e8418fdf
  Z: 29.0
  valence: 11
  core: 18
  charge: 0.0
  file: /groups/kemi/thorkong/miniconda3/envs/gpaw22/share/gpaw/Cu.PBE.gz
  compensation charges: gauss, rc=0.33, lmax=2
  cutoffs: 2.06(filt), 2.43(core),
  valence states:
                energy  radius
    4s(1.00)    -4.609   1.164
    4p(0.00)    -0.698   1.164
    3d(10.00)    -5.039   1.058
    *s          22.603   1.164
    *p          26.513   1.164
    *d          22.172   1.058

  LCAO basis set for Cu:
    Name: dzp
    File: /groups/kemi/thorkong/miniconda3/envs/gpaw22/share/gpaw/Cu.dzp.basis.gz
    Number of radial functions: 5
    Number of spherical harmonics: 15
      l=0, rc=8.9688 Bohr: 4s-sz confined orbital
      l=2, rc=5.1719 Bohr: 3d-sz confined orbital
      l=0, rc=5.3281 Bohr: 4s-dz split-valence wave
      l=2, rc=3.1406 Bohr: 3d-dz split-valence wave
      l=1, rc=8.9688 Bohr: p-type Gaussian polarization

Cl-setup:
  name: Chlorine
  id: 726897f06f34e53cf8e33b5885a02604
  Z: 17.0
  valence: 7
  core: 10
  charge: 0.0
  file: /groups/kemi/thorkong/miniconda3/envs/gpaw22/share/gpaw/Cl.PBE.gz
  compensation charges: gauss, rc=0.25, lmax=2
  cutoffs: 1.40(filt), 1.49(core),
  valence states:
                energy  radius
    3s(2.00)   -20.689   0.794
    3p(5.00)    -8.594   0.794
    *s           6.523   0.794
    *p          18.617   0.794
    *d           0.000   0.794

  LCAO basis set for Cl:
    Name: dzp
    File: /groups/kemi/thorkong/miniconda3/envs/gpaw22/share/gpaw/Cl.dzp.basis.gz
    Number of radial functions: 5
    Number of spherical harmonics: 13
      l=0, rc=5.1719 Bohr: 3s-sz confined orbital
      l=1, rc=6.2656 Bohr: 3p-sz confined orbital
      l=0, rc=2.8281 Bohr: 3s-dz split-valence wave
      l=1, rc=3.5156 Bohr: 3p-dz split-valence wave
      l=2, rc=6.2656 Bohr: d-type Gaussian polarization

Reference energy: -2531597.994586

Spin-paired calculation

Convergence criteria:
 Maximum [total energy] change in last 3 cyles: 0.0005 eV / electron
 Maximum integral of absolute [dens]ity change: 0.0001 electrons / valence electron
 Maximum integral of absolute [eigenst]ate change: 4e-08 eV^2 / valence electron
 Maximum number of scf [iter]ations: 333
 (Square brackets indicate name in SCF output, whereas a 'c' in
 the SCF output indicates the quantity has converged.)

Symmetries present (total): 1

  ( 1  0  0)
  ( 0  1  0)
  ( 0  0  1)

16 k-points: 4 x 4 x 1 Monkhorst-Pack grid
8 k-points in the irreducible part of the Brillouin zone
       k-points in crystal coordinates                weights
   0:     0.12500000   -0.37500000    0.00000000          2/16
   1:     0.12500000   -0.12500000    0.00000000          2/16
   2:     0.12500000    0.12500000    0.00000000          2/16
   3:     0.12500000    0.37500000    0.00000000          2/16
   4:     0.37500000   -0.37500000    0.00000000          2/16
   5:     0.37500000   -0.12500000    0.00000000          2/16
   6:     0.37500000    0.12500000    0.00000000          2/16
   7:     0.37500000    0.37500000    0.00000000          2/16

Wave functions: Plane wave expansion
  Cutoff energy: 600.000 eV
  Number of coefficients (min, max): 54614, 54705
  Pulay-stress correction: 0.000000 eV/Ang^3 (de/decut=0.000000)
  Using FFTW library
  ScaLapack parameters: grid=2x2, blocksize=64
  Wavefunction extrapolation:
    Improved wavefunction reuse through dual PAW basis

Occupation numbers: Fermi-Dirac: width=0.1000 eV

Eigensolver
   Davidson(niter=2)

Densities:
  Coarse grid: 45*45*175 grid
  Fine grid: 90*90*350 grid
  Total Charge: 0.000000

Density mixing:
  Method: separate
  Backend: pulay
  Linear mixing parameter: 0.05
  Mixing with 5 old densities
  Damping of long wave oscillations: 50

Hamiltonian:
  XC and Coulomb potentials evaluated on a 90*90*350 grid
  Using the BEEF-vdW Exchange-Correlation functional
  External potential:
    NoExternalPotential

XC parameters: BEEF-vdW with 2 nearest neighbor stencil

Total number of cores used: 32
Parallelization over k-points: 8
Domain decomposition: 1 x 1 x 4
                      2 x 2 x 8 (xc only)

Number of atoms: 62
Number of atomic orbitals: 914
Number of bands in calculation: 394
Number of valence electrons: 650
Bands to converge: occupied

... initialized

Initializing position-dependent things.

Density initialized from atomic densities
Creating initial wave functions:
  394 bands from LCAO basis set

                           Cl       Cl

           Cl      Cl
                        Cu    Cu     Cu
                   Cu     Cu    Cu
               Cu    Cu     Cu
                    Cu     Cu    Cu
               Cu     Cu     Cu
           Cu    Cu     Cu
                Cu     Cu    Cu
            Cu    Cu    CCu
       Cu     Cu              Cu     Cu
                   CCu    Cu    Cu
               Cu    Cu     Cu
                    Cu     Cu    Cu
               Cu     Cu     Cu
           Cu    Cu     Cu
                Cu     Cu    Cu
            Cu    Cu     Cu
       Cu     Cu    Cu
                         Cl      Cl

[...]

Positions:
   0 Cu     2.856456   -0.033548   10.004442    ( 0.0000,  0.0000,  0.0000)
   1 Cu     4.201620    2.271609    9.924706    ( 0.0000,  0.0000,  0.0000)
   2 Cu     0.269556   -0.023160   10.061154    ( 0.0000,  0.0000,  0.0000)
   3 Cu     1.599427    2.253458    9.911443    ( 0.0000,  0.0000,  0.0000)
   4 Cu     2.891239    3.005584   12.131495    ( 0.0000,  0.0000,  0.0000)
   5 Cu     1.584744    0.761214   12.149064    ( 0.0000,  0.0000,  0.0000)
   6 Cu     5.510005    3.007347   12.129795    ( 0.0000,  0.0000,  0.0000)
   7 Cu     4.203646    0.755582   12.093565    ( 0.0000,  0.0000,  0.0000)
   8 Cu     5.509082    1.507301   14.259643    ( 0.0000,  0.0000,  0.0000)
   9 Cu     6.816393    3.774829   14.269161    ( 0.0000,  0.0000,  0.0000)
  10 Cu     2.901964    1.508659   14.276017    ( 0.0000,  0.0000,  0.0000)
  11 Cu     4.206367    3.774516   14.280859    ( 0.0000,  0.0000,  0.0000)
  12 Cu     2.894063   -0.005794   16.419171    ( 0.0000,  0.0000,  0.0000)
  13 Cu     4.204436    2.268961   16.415251    ( 0.0000,  0.0000,  0.0000)
  14 Cu     0.279735   -0.007372   16.411991    ( 0.0000,  0.0000,  0.0000)
  15 Cu     1.582095    2.263682   16.411231    ( 0.0000,  0.0000,  0.0000)
  16 Cu     2.888384    3.022672   18.576148    ( 0.0000,  0.0000,  0.0000)
  17 Cu     1.594804    0.746831   18.557842    ( 0.0000,  0.0000,  0.0000)
  18 Cu     5.510739    3.036617   18.554788    ( 0.0000,  0.0000,  0.0000)
  19 Cu     4.191897    0.760738   18.535219    ( 0.0000,  0.0000,  0.0000)
  20 Cu     5.540712    1.512318   20.602183    ( 0.0000,  0.0000,  0.0000)
  21 Cu     6.819191    3.772408   20.760451    ( 0.0000,  0.0000,  0.0000)
  22 Cu     2.886040    1.500041   20.756788    ( 0.0000,  0.0000,  0.0000)
  23 Cu     4.201049    3.765449   20.774500    ( 0.0000,  0.0000,  0.0000)
  24 Cu     5.480165    4.531724   10.082422    ( 0.0000,  0.0000,  0.0000)
  25 Cu     2.917638    4.546073   10.070797    ( 0.0000,  0.0000,  0.0000)
  26 Cu     4.199876    5.289765   12.189854    ( 0.0000,  0.0000,  0.0000)
  27 Cu     6.828766    5.283103   12.149414    ( 0.0000,  0.0000,  0.0000)
  28 Cu     8.126705    6.049628   14.265248    ( 0.0000,  0.0000,  0.0000)
  29 Cu     5.515239    6.046430   14.284929    ( 0.0000,  0.0000,  0.0000)
  30 Cu     5.511705    4.536520   16.424587    ( 0.0000,  0.0000,  0.0000)
  31 Cu     2.898073    4.533691   16.415160    ( 0.0000,  0.0000,  0.0000)
  32 Cu     4.215786    5.277725   18.574739    ( 0.0000,  0.0000,  0.0000)
  33 Cu     6.817072    5.288302   18.591230    ( 0.0000,  0.0000,  0.0000)
  34 Cu     8.164390    6.077428   20.680633    ( 0.0000,  0.0000,  0.0000)
  35 Cu     5.502426    6.041013   20.781568    ( 0.0000,  0.0000,  0.0000)
  36 Cu     5.518363    0.002832    9.903683    ( 0.0000,  0.0000,  0.0000)
  37 Cu     6.819887    2.278368    9.910637    ( 0.0000,  0.0000,  0.0000)
  38 Cu     8.132385    3.021176   12.108587    ( 0.0000,  0.0000,  0.0000)
  39 Cu     6.805062    0.766059   12.109732    ( 0.0000,  0.0000,  0.0000)
  40 Cu     8.122625    1.510195   14.269150    ( 0.0000,  0.0000,  0.0000)
  41 Cu     9.438580    3.780145   14.273273    ( 0.0000,  0.0000,  0.0000)
  42 Cu     5.505597   -0.002576   16.399496    ( 0.0000,  0.0000,  0.0000)
  43 Cu     6.814417    2.269318   16.403589    ( 0.0000,  0.0000,  0.0000)
  44 Cu     8.129529    3.038361   18.553299    ( 0.0000,  0.0000,  0.0000)
  45 Cu     6.820995    0.754053   18.494528    ( 0.0000,  0.0000,  0.0000)
  46 Cu     8.103559    1.498008   20.614181    ( 0.0000,  0.0000,  0.0000)
  47 Cu     9.421426    3.790533   20.773793    ( 0.0000,  0.0000,  0.0000)
  48 Cu     8.134949    4.543756    9.928358    ( 0.0000,  0.0000,  0.0000)
  49 Cu     9.426040    5.296945   12.126911    ( 0.0000,  0.0000,  0.0000)
  50 Cu    10.741054    6.051292   14.272293    ( 0.0000,  0.0000,  0.0000)
  51 Cu     8.118779    4.535207   16.408506    ( 0.0000,  0.0000,  0.0000)
  52 Cu     9.436005    5.282559   18.535625    ( 0.0000,  0.0000,  0.0000)
  53 Cu    10.751392    6.066814   20.623596    ( 0.0000,  0.0000,  0.0000)
  54 Cl     4.616078    1.893667   23.165510    ( 0.0000,  0.0000,  0.0000)
  55 Cl     6.404868    4.150343    7.519758    ( 0.0000,  0.0000,  0.0000)
  56 Cl    10.748719    5.003559   23.173711    ( 0.0000,  0.0000,  0.0000)
  57 Cl     0.273072    1.039229    7.511585    ( 0.0000,  0.0000,  0.0000)
  58 Cl     9.839848    4.032183    7.526380    ( 0.0000,  0.0000,  0.0000)
  59 Cl     1.183158    2.011987   23.158988    ( 0.0000,  0.0000,  0.0000)
  60 Cl     7.129498    5.392401   23.171892    ( 0.0000,  0.0000,  0.0000)
  61 Cl     3.891245    0.651825    7.513698    ( 0.0000,  0.0000,  0.0000)

Unit cell:
           periodic     x           y           z      points  spacing
  1. axis:    yes    7.851007    0.000000    0.000000    45     0.1511
  2. axis:    yes    3.925503    6.799171    0.000000    45     0.1511
  3. axis:    yes    0.000000    0.000000   30.683867   175     0.1753

  Lengths:   7.851007   7.851006  30.683867
  Angles:   90.000000  90.000000  60.000001

Effective grid spacing dv^(1/3) = 0.1666

[...]
iter:   8 22:09:29 -4380.376883  -2.69  -1.57
iter:   9 22:10:23 -4384.024564  -2.06  -1.62
iter:  10 22:11:09 -4382.846677  -2.70  -1.56
iter:  11 22:11:56 -4382.109035  -2.35  -1.63
iter:  12 22:12:49 -4380.558153  -2.56  -1.61
iter:  13 22:13:39 -4380.315858  -2.40  -1.83
iter:  14 22:14:25 -4381.156660  -3.38  -2.01
iter:  15 22:15:23 -4380.528776  -4.17  -1.93
iter:  16 22:16:19 -4379.168835  -2.87  -1.99
iter:  17 22:17:05 -4378.743033  -2.96  -2.15
iter:  18 22:17:52 -4378.852033  -3.51  -2.37
iter:  19 22:18:52 -4378.780131c -3.63  -2.39
iter:  20 22:19:39 -4378.837366c -3.61  -2.51
iter:  21 22:20:25 -4378.716173c -3.34  -2.48
iter:  22 22:21:12 -4378.699774c -4.12  -2.60
iter:  23 22:21:58 -4378.665206c -4.47  -2.72
iter:  24 22:22:55 -4378.629991c -4.38  -2.82
iter:  25 22:23:54 -4378.637260c -4.85  -3.14
iter:  26 22:24:40 -4378.632320c -4.85  -3.11
iter:  27 22:25:25 -4378.630511c -5.44  -3.22
iter:  28 22:26:11 -4378.633833c -5.10  -3.24
iter:  29 22:27:07 -4378.631024c -6.09  -3.46
iter:  30 22:27:54 -4378.629653c -5.98  -3.60
iter:  31 22:28:46 -4378.630224c -6.35  -3.76
iter:  32 22:29:46 -4378.630354c -6.12  -3.84
iter:  33 22:30:39 -4378.629691c -6.57  -4.10c
iter:  34 22:31:27 -4378.629929c -7.24  -4.23c
iter:  35 22:32:22 -4378.630098c -7.01  -4.25c
iter:  36 22:33:28 -4378.630037c -7.49c -4.42c

Converged after 36 iterations.

Dipole moment: (14.961140, -4.004032, -0.000711) |e|*Ang

Energy contributions relative to reference atoms: (reference = -2531597.994586)

Kinetic:       +391.705194
Potential:     -441.126836
External:        +0.000000
XC:            -4328.135373
Entropy (-ST):   -0.673602
Local:           -0.736221
Free energy:   -4378.966838
Extrapolated:  -4378.630037

Showing only first 2 kpts
 Kpt  Band  Eigenvalues  Occupancy
  0   323     -0.65800    0.99278
  0   324     -0.59916    0.70735
  0   325     -0.54189    0.47169
  0   326     -0.51311    0.37590

  1   323     -0.95898    1.90472
  1   324     -0.92924    1.87381
  1   325     -0.87121    1.78521
  1   326     -0.83102    1.69514

Fermi level: -0.65945

No gap

Forces in eV/Ang:
  0 Cu    0.31709    0.21407   -0.80008
  1 Cu   -0.03764   -0.26594   -0.47475
  2 Cu   -0.02163    0.36222   -0.92088
  3 Cu   -0.10577    0.05816   -0.65407
  4 Cu    0.00944   -0.02717   -0.16211
  5 Cu    0.06353    0.01223   -0.18760
  6 Cu   -0.01385   -0.03864   -0.16335
  7 Cu   -0.01089   -0.00865   -0.06692
  8 Cu   -0.00554    0.00947   -0.00992
  9 Cu    0.01412    0.00179   -0.02991
 10 Cu   -0.01026    0.01239    0.00167
 11 Cu   -0.00726   -0.00065    0.00767
 12 Cu   -0.01467    0.00450   -0.00956
 13 Cu   -0.01472   -0.00146    0.03183
 14 Cu   -0.00531    0.00970    0.01443
 15 Cu    0.00165    0.00332    0.03659
 16 Cu    0.00015   -0.01092    0.18245
 17 Cu    0.03746   -0.01761    0.15851
 18 Cu    0.01397    0.03819    0.16336
 19 Cu   -0.02487   -0.03743    0.16232
 20 Cu   -0.33832    0.14265    0.99090
 21 Cu    0.03768    0.26531    0.47393
 22 Cu    0.02291    0.09544    0.69253
 23 Cu   -0.06939    0.02400    0.60755
 24 Cu    0.34000   -0.14406   -0.99250
 25 Cu   -0.34620   -0.18636   -0.94758
 26 Cu    0.01066   -0.00440   -0.22723
 27 Cu    0.02557    0.03742   -0.16213
 28 Cu    0.01458   -0.00452    0.01164
 29 Cu   -0.00393   -0.00483    0.01270
 30 Cu    0.00536   -0.00929    0.01248
 31 Cu   -0.01452   -0.00960    0.05813
 32 Cu    0.03826   -0.00066    0.12297
 33 Cu    0.01103    0.00861    0.06718
 34 Cu   -0.31662   -0.21364    0.79915
 35 Cu    0.21953   -0.08614    0.42453
 36 Cu   -0.21974    0.08636   -0.42512
 37 Cu    0.06898   -0.02357   -0.60793
 38 Cu   -0.00021    0.01091   -0.18262
 39 Cu   -0.03860    0.00099   -0.12241
 40 Cu    0.01469    0.00929   -0.05577
 41 Cu   -0.00139   -0.00314   -0.03465
 42 Cu    0.00324    0.00464   -0.01103
 43 Cu    0.00711    0.00102   -0.00608
 44 Cu   -0.00965    0.02677    0.16214
 45 Cu   -0.01082    0.00466    0.22830
 46 Cu    0.34382    0.18489    0.94484
 47 Cu    0.10615   -0.05875    0.65353
 48 Cu   -0.02354   -0.09496   -0.69260
 49 Cu   -0.03796    0.01792   -0.15857
 50 Cu    0.00541   -0.01016   -0.01233
 51 Cu    0.01003   -0.01238   -0.00002
 52 Cu   -0.06357   -0.01163    0.18772
 53 Cu    0.02166   -0.35976    0.91854
 54 Cl    0.39898    0.03968   -1.95354
 55 Cl   -0.40100   -0.03953    1.95948
 56 Cl    0.20851    0.33226   -1.97602
 57 Cl   -0.20995   -0.33414    1.98101
 58 Cl    0.36888    0.22451    1.97482
 59 Cl   -0.36699   -0.22290   -1.96994
 60 Cl   -0.30100   -0.15959   -2.03770
 61 Cl    0.30333    0.15988    2.04014

System changes: positions

[...]

Density initialized from wave functions

[...]

           Cl      Cl   Cu    Cu
                                     Cu
                   Cu     Cu    Cu
               Cu    Cu     Cu
                    Cu     Cu    Cu
               Cu     Cu     Cu
           Cu    Cu     Cu
                Cu     Cu    Cu
            Cu    Cu     Cu
       Cu     Cu    Cu  Cu    Cu     Cu
                   Cu     Cu    Cu
               Cu    Cu     Cu
                    Cu     Cu    Cu
               Cu     Cu     Cu
           Cu    Cu     Cu
                Cu     Cu    Cu
            Cu    Cu     Cu
       Cu
              Cu    Cu   Cl      Cl

[...]

          Cl       Cl   Cu    Cu     Cu
                   Cu     Cu    Cu

               Cu   CCu    CCu   Cu

                Cu    Cu    Cu
           Cu   CCu    CCu   Cu

            Cu    Cu    CCu   Cu     Cu
       Cu     Cu   CCu    Cu    Cu

               Cu   CCu    CCu   Cu
                Cu    Cu    Cu

[...]

            Cu    Cu     Cu
       Cu     Cu    Cu   Cl       Cl

[...]

               Cu   CCu    CCu   Cu
                Cu    Cu    Cu

[...]

               Cu   CCu    Cu    Cu
                Cu    Cu    Cu

[...]

                Cu    Cu    Cu
           Cu    Cu    CCu   Cu

[...]

           Cl      Cl   Cu    Cu     Cu
                   Cu           Cu
                          Cu
               Cu   CCu    CCu   Cu
                Cu    Cu    Cu

[...]

                Cu    Cu    Cu
           Cu   CCu    CCu   Cu
                  Cu
            Cu           Cu
       Cu     Cu    Cu   Cl      Cl

[...]

               Cu   CCu    Cu    Cu
                Cu    Cu    Cu

[...]

                Cu    Cu    Cu
           Cu    Cu    CCu   Cu

[...]

               Cu   CCu    CCu   Cu
                Cu    Cu
                            Cu
           Cu   CCu    CCu   Cu

[...]

               Cu   CCu    CCu   Cu

                Cu    Cu    Cu
           Cu   CCu    CCu   Cu

[...]

               Cu   CCu    CCu   Cu
                Cu
                      Cu    Cu
           Cu   CCu    CCu   Cu

[...]

           Cl      Cl   Cu    Cu     Cu
                   Cu           Cu
                          Cu
               Cu   CCu    CCu   Cu
                Cu
                      Cu     Cu
           Cu   CCu    CCu   Cu

[...]

               Cu   CCu    CCu   Cu
               Cu     Cu
                            Cu
           Cu   CCu    CCu   Cu
                  Cu
            Cu           Cu
       Cu     Cu    Cu   Cl      Cl

[...]

               Cu   CCu    CCu   Cu
               Cu     Cu
                            Cu
           Cu   CCu    CCu   Cu

[...]

System changes: positions

Initializing position-dependent things.

Density initialized from wave functions

[...]

           Cl      Cl   Cu    Cu     Cu
                   Cu     Cu    Cu

[...]

            Cu    Cu    CCu   Cu     Cu
       Cu     Cu   CCu    Cu    Cu

               Cu   CCu    CCu   Cu
               Cu
                      Cu    Cu
           Cu   CCu    CCu   Cu

            Cu    Cu     Cu
       Cu     Cu    Cu   Cl      Cl

        Cl       Cl

Positions:
   0 Cu     2.876985   -0.004576   10.026053    ( 0.0000,  0.0000,  0.0000)
   1 Cu     4.191825    2.274914   10.041084    ( 0.0000,  0.0000,  0.0000)
   2 Cu     0.267361   -0.030195   10.094137    ( 0.0000,  0.0000,  0.0000)
   3 Cu     1.586114    2.257650    9.870221    ( 0.0000,  0.0000,  0.0000)
   4 Cu     2.879441    3.001896   12.126104    ( 0.0000,  0.0000,  0.0000)
   5 Cu     1.598396    0.776940   12.116742    ( 0.0000,  0.0000,  0.0000)
   6 Cu     5.514206    3.002344   12.122355    ( 0.0000,  0.0000,  0.0000)
   7 Cu     4.196371    0.757074   12.166207    ( 0.0000,  0.0000,  0.0000)
   8 Cu     5.511382    1.514160   14.289214    ( 0.0000,  0.0000,  0.0000)
   9 Cu     6.822248    3.776603   14.240443    ( 0.0000,  0.0000,  0.0000)
  10 Cu     2.894021    1.516015   14.295444    ( 0.0000,  0.0000,  0.0000)
  11 Cu     4.199269    3.774251   14.278707    ( 0.0000,  0.0000,  0.0000)
  12 Cu     2.890093   -0.003361   16.404935    ( 0.0000,  0.0000,  0.0000)
  13 Cu     4.198156    2.267271   16.445434    ( 0.0000,  0.0000,  0.0000)
  14 Cu     0.279228   -0.003114   16.413573    ( 0.0000,  0.0000,  0.0000)
  15 Cu     1.583774    2.266792   16.427675    ( 0.0000,  0.0000,  0.0000)
  16 Cu     2.896902    3.018731   18.642440    ( 0.0000,  0.0000,  0.0000)
  17 Cu     1.613420    0.753277   18.563792    ( 0.0000,  0.0000,  0.0000)
  18 Cu     5.506320    3.041632   18.562771    ( 0.0000,  0.0000,  0.0000)
  19 Cu     4.180301    0.750077   18.569453    ( 0.0000,  0.0000,  0.0000)
  20 Cu     5.545428    1.498374   20.592028    ( 0.0000,  0.0000,  0.0000)
  21 Cu     6.828876    3.769097   20.643901    ( 0.0000,  0.0000,  0.0000)
  22 Cu     2.905240    1.494507   20.828773    ( 0.0000,  0.0000,  0.0000)
  23 Cu     4.227266    3.782502   20.814399    ( 0.0000,  0.0000,  0.0000)
  24 Cu     5.475313    4.545565   10.093116    ( 0.0000,  0.0000,  0.0000)
  25 Cu     2.907499    4.548293   10.093448    ( 0.0000,  0.0000,  0.0000)
  26 Cu     4.197212    5.287676   12.155389    ( 0.0000,  0.0000,  0.0000)
  27 Cu     6.840234    5.293911   12.115672    ( 0.0000,  0.0000,  0.0000)
  28 Cu     8.130357    6.047306   14.281033    ( 0.0000,  0.0000,  0.0000)
  29 Cu     5.512790    6.048708   14.260882    ( 0.0000,  0.0000,  0.0000)
  30 Cu     5.509055    4.529718   16.396654    ( 0.0000,  0.0000,  0.0000)
  31 Cu     2.891216    4.527792   16.437540    ( 0.0000,  0.0000,  0.0000)
  32 Cu     4.220164    5.267294   18.562081    ( 0.0000,  0.0000,  0.0000)
  33 Cu     6.824203    5.286865   18.518882    ( 0.0000,  0.0000,  0.0000)
  34 Cu     8.143667    6.048477   20.658890    ( 0.0000,  0.0000,  0.0000)
  35 Cu     5.512890    6.046343   20.644883    ( 0.0000,  0.0000,  0.0000)
  36 Cu     5.507843   -0.002445   10.040177    ( 0.0000,  0.0000,  0.0000)
  37 Cu     6.793574    2.261437    9.870527    ( 0.0000,  0.0000,  0.0000)
  38 Cu     8.123688    3.025212   12.042468    ( 0.0000,  0.0000,  0.0000)
  39 Cu     6.800448    0.776573   12.123056    ( 0.0000,  0.0000,  0.0000)
  40 Cu     8.129151    1.516089   14.248294    ( 0.0000,  0.0000,  0.0000)
  41 Cu     9.436625    3.777115   14.258156    ( 0.0000,  0.0000,  0.0000)
  42 Cu     5.507587   -0.004749   16.425226    ( 0.0000,  0.0000,  0.0000)
  43 Cu     6.821133    2.269669   16.407336    ( 0.0000,  0.0000,  0.0000)
  44 Cu     8.141205    3.042109   18.559000    ( 0.0000,  0.0000,  0.0000)
  45 Cu     6.823431    0.756302   18.529595    ( 0.0000,  0.0000,  0.0000)
  46 Cu     8.113168    1.495669   20.591740    ( 0.0000,  0.0000,  0.0000)
  47 Cu     9.434537    3.786356   20.814611    ( 0.0000,  0.0000,  0.0000)
  48 Cu     8.115545    4.549348    9.856170    ( 0.0000,  0.0000,  0.0000)
  49 Cu     9.407265    5.290705   12.121338    ( 0.0000,  0.0000,  0.0000)
  50 Cu    10.741179    6.047062   14.272464    ( 0.0000,  0.0000,  0.0000)
  51 Cu     8.126391    4.527874   16.390433    ( 0.0000,  0.0000,  0.0000)
  52 Cu     9.422177    5.266968   18.568351    ( 0.0000,  0.0000,  0.0000)
  53 Cu    10.753327    6.074188   20.590945    ( 0.0000,  0.0000,  0.0000)
  54 Cl     4.676305    1.960756   22.627729    ( 0.0000,  0.0000,  0.0000)
  55 Cl     6.344847    4.083218    8.057689    ( 0.0000,  0.0000,  0.0000)
  56 Cl    10.791604    5.058407   22.615874    ( 0.0000,  0.0000,  0.0000)
  57 Cl     0.229609    0.985300    8.069497    ( 0.0000,  0.0000,  0.0000)
  58 Cl     9.881434    4.028462    8.070915    ( 0.0000,  0.0000,  0.0000)
  59 Cl     1.139929    2.015366   22.614386    ( 0.0000,  0.0000,  0.0000)
  60 Cl     6.830219    5.278164   22.519306    ( 0.0000,  0.0000,  0.0000)
  61 Cl     4.190683    0.765670    8.166361    ( 0.0000,  0.0000,  0.0000)

Unit cell:
           periodic     x           y           z      points  spacing
  1. axis:    yes    7.851007    0.000000    0.000000    45     0.1511
  2. axis:    yes    3.925503    6.799171    0.000000    45     0.1511
  3. axis:    yes    0.000000    0.000000   30.683867   175     0.1753

  Lengths:   7.851007   7.851006  30.683867
  Angles:   90.000000  90.000000  60.000001

Effective grid spacing dv^(1/3) = 0.1666

     iter     time        total  log10-change:
                         energy  eigst   dens
iter:   1 02:20:18 -4385.105972  -3.55
iter:   2 02:21:03 -4385.060497  -4.12  -2.94
iter:   3 02:21:48 -4385.060920c -5.19  -3.50
iter:   4 02:22:37 -4385.058644c -5.86  -3.50
iter:   5 02:23:27 -4385.058116c -5.27  -3.65
iter:   6 02:24:11 -4385.057960c -6.44  -4.05c
iter:   7 02:24:56 -4385.057931c -6.85  -4.14c
iter:   8 02:25:41 -4385.057933c -6.75  -4.23c
iter:   9 02:26:38 -4385.057902c -6.76  -4.39c
iter:  10 02:27:37 -4385.057897c -7.65c -4.59c

Converged after 10 iterations.

Dipole moment: (18.493891, -3.276946, 0.000229) |e|*Ang

Energy contributions relative to reference atoms: (reference = -2531597.994586)

Kinetic:       +466.908374
Potential:     -502.551926
External:        +0.000000
XC:            -4348.467937
Entropy (-ST):   -0.510681
Local:           -0.691067
Free energy:   -4385.313238
Extrapolated:  -4385.057897

Showing only first 2 kpts
 Kpt  Band  Eigenvalues  Occupancy
  0   323      0.29151    1.18667
  0   324      0.35121    0.89082
  0   325      0.45639    0.43816
  0   326      0.52231    0.25344

  1   323     -0.20907    1.99086
  1   324     -0.12047    1.97797
  1   325      0.11779    1.78469
  1   326      0.21917    1.50097

Fermi level: 0.32929

No gap

Forces in eV/Ang:
  0 Cu    0.00025   -0.00012    0.00421
  1 Cu    0.00267    0.00142   -0.00265
  2 Cu    0.00216   -0.00088    0.00344
  3 Cu    0.00480   -0.00087    0.00782
  4 Cu    0.00319   -0.00255    0.00716
  5 Cu    0.00035    0.00180    0.00822
  6 Cu   -0.00078   -0.00517    0.00846
  7 Cu    0.00105    0.00381    0.01109
  8 Cu    0.00012    0.00240   -0.01476
  9 Cu   -0.00115    0.00189   -0.00693
 10 Cu   -0.00495    0.00352   -0.00140
 11 Cu    0.00136    0.01229   -0.00477
 12 Cu    0.00071    0.00429    0.00503
 13 Cu    0.00122   -0.00148    0.00219
 14 Cu   -0.01271    0.00627    0.00366
 15 Cu   -0.00111   -0.00017   -0.00432
 16 Cu   -0.00313    0.00166   -0.00959
 17 Cu   -0.00329   -0.00605   -0.00465
 18 Cu    0.00119    0.00477   -0.00547
 19 Cu    0.00014   -0.00372   -0.00317
 20 Cu   -0.00229   -0.00041    0.00058
 21 Cu   -0.00264   -0.00011    0.00504
 22 Cu   -0.00089   -0.00297   -0.00634
 23 Cu    0.00468    0.00092   -0.00273
 24 Cu    0.00063    0.00108    0.00152
 25 Cu    0.00412    0.00205    0.00489
 26 Cu   -0.00364    0.00097    0.00597
 27 Cu    0.00046    0.00344    0.00644
 28 Cu   -0.00093   -0.00441   -0.01042
 29 Cu   -0.00793   -0.00452   -0.00435
 30 Cu   -0.00038   -0.00207    0.00987
 31 Cu   -0.00260    0.00048    0.00036
 32 Cu    0.00232    0.00030   -0.00748
 33 Cu   -0.00144   -0.00388   -0.00847
 34 Cu   -0.00167   -0.00057   -0.00152
 35 Cu   -0.00109   -0.00100    0.00584
 36 Cu    0.00209    0.00050   -0.00356
 37 Cu   -0.00658   -0.00146    0.00556
 38 Cu    0.00283   -0.00159    0.01253
 39 Cu   -0.00251    0.00037    0.01013
 40 Cu    0.00298   -0.00011   -0.00466
 41 Cu    0.00121    0.00012   -0.00012
 42 Cu    0.00819    0.00427   -0.00145
 43 Cu   -0.00143   -0.01220   -0.00091
 44 Cu   -0.00399    0.00196   -0.00427
 45 Cu    0.00344   -0.00107   -0.00048
 46 Cu   -0.00230   -0.00093   -0.00234
 47 Cu   -0.00334    0.00001   -0.00490
 48 Cu    0.00074    0.00461    0.00909
 49 Cu    0.00219    0.00551    0.00778
 50 Cu    0.01291   -0.00664   -0.00904
 51 Cu    0.00501   -0.00319   -0.00358
 52 Cu   -0.00024   -0.00121   -0.00541
 53 Cu   -0.00218   -0.00143   -0.00003
 54 Cl   -0.00997    0.00811   -0.02023
 55 Cl    0.01048   -0.00856    0.00896
 56 Cl   -0.00442   -0.00002   -0.01327
 57 Cl    0.00404    0.00121    0.00046
 58 Cl    0.00137   -0.00223    0.00464
 59 Cl   -0.00229    0.00169   -0.01647
 60 Cl    0.00522    0.00239    0.00800
 61 Cl   -0.00429   -0.00236   -0.01813