User:   thorkong@node027.cluster
Date:   Sun Oct  9 00:49:35 2022
Arch:   x86_64
Pid:    99536
Python: 3.10.5
gpaw:   /groups/kemi/thorkong/miniconda3/envs/gpaw22/lib/python3.10/site-packages/gpaw
_gpaw:  /groups/kemi/thorkong/miniconda3/envs/gpaw22/lib/python3.10/site-packages/
        _gpaw.cpython-310-x86_64-linux-gnu.so
ase:    /groups/kemi/thorkong/miniconda3/envs/gpaw22/lib/python3.10/site-packages/ase (version 3.22.1)
numpy:  /groups/kemi/thorkong/miniconda3/envs/gpaw22/lib/python3.10/site-packages/numpy (version 1.23.0)
scipy:  /groups/kemi/thorkong/miniconda3/envs/gpaw22/lib/python3.10/site-packages/scipy (version 1.8.1)
units:  Angstrom and eV
cores: 32
OpenMP: True
OMP_NUM_THREADS: 1

Input parameters:
  basis: dzp
  kpts: [4 4 1]
  mode: {ecut: 600.0,
         name: pw}
  xc: BEEF-vdW

System changes: positions, numbers, cell, pbc, initial_charges, initial_magmoms

Initialize ...

Cu-setup:
  name: Copper
  id: f1c4d45d90492f1bbfdcb091e8418fdf
  Z: 29.0
  valence: 11
  core: 18
  charge: 0.0
  file: /groups/kemi/thorkong/miniconda3/envs/gpaw22/share/gpaw/Cu.PBE.gz
  compensation charges: gauss, rc=0.33, lmax=2
  cutoffs: 2.06(filt), 2.43(core),
  valence states:
                energy  radius
    4s(1.00)    -4.609   1.164
    4p(0.00)    -0.698   1.164
    3d(10.00)    -5.039   1.058
    *s          22.603   1.164
    *p          26.513   1.164
    *d          22.172   1.058

  LCAO basis set for Cu:
    Name: dzp
    File: /groups/kemi/thorkong/miniconda3/envs/gpaw22/share/gpaw/Cu.dzp.basis.gz
    Number of radial functions: 5
    Number of spherical harmonics: 15
      l=0, rc=8.9688 Bohr: 4s-sz confined orbital
      l=2, rc=5.1719 Bohr: 3d-sz confined orbital
      l=0, rc=5.3281 Bohr: 4s-dz split-valence wave
      l=2, rc=3.1406 Bohr: 3d-dz split-valence wave
      l=1, rc=8.9688 Bohr: p-type Gaussian polarization

Cl-setup:
  name: Chlorine
  id: 726897f06f34e53cf8e33b5885a02604
  Z: 17.0
  valence: 7
  core: 10
  charge: 0.0
  file: /groups/kemi/thorkong/miniconda3/envs/gpaw22/share/gpaw/Cl.PBE.gz
  compensation charges: gauss, rc=0.25, lmax=2
  cutoffs: 1.40(filt), 1.49(core),
  valence states:
                energy  radius
    3s(2.00)   -20.689   0.794
    3p(5.00)    -8.594   0.794
    *s           6.523   0.794
    *p          18.617   0.794
    *d           0.000   0.794

  LCAO basis set for Cl:
    Name: dzp
    File: /groups/kemi/thorkong/miniconda3/envs/gpaw22/share/gpaw/Cl.dzp.basis.gz
    Number of radial functions: 5
    Number of spherical harmonics: 13
      l=0, rc=5.1719 Bohr: 3s-sz confined orbital
      l=1, rc=6.2656 Bohr: 3p-sz confined orbital
      l=0, rc=2.8281 Bohr: 3s-dz split-valence wave
      l=1, rc=3.5156 Bohr: 3p-dz split-valence wave
      l=2, rc=6.2656 Bohr: d-type Gaussian polarization

Reference energy: -3367094.026518

Spin-paired calculation

Convergence criteria:
 Maximum [total energy] change in last 3 cyles: 0.0005 eV / electron
 Maximum integral of absolute [dens]ity change: 0.0001 electrons / valence electron
 Maximum integral of absolute [eigenst]ate change: 4e-08 eV^2 / valence electron
 Maximum number of scf [iter]ations: 333
 (Square brackets indicate name in SCF output, whereas a 'c' in
 the SCF output indicates the quantity has converged.)

Symmetries present (total): 1

  ( 1  0  0)
  ( 0  1  0)
  ( 0  0  1)

16 k-points: 4 x 4 x 1 Monkhorst-Pack grid
8 k-points in the irreducible part of the Brillouin zone
       k-points in crystal coordinates                weights
   0:     0.12500000   -0.37500000    0.00000000          2/16
   1:     0.12500000   -0.12500000    0.00000000          2/16
   2:     0.12500000    0.12500000    0.00000000          2/16
   3:     0.12500000    0.37500000    0.00000000          2/16
   4:     0.37500000   -0.37500000    0.00000000          2/16
   5:     0.37500000   -0.12500000    0.00000000          2/16
   6:     0.37500000    0.12500000    0.00000000          2/16
   7:     0.37500000    0.37500000    0.00000000          2/16

Wave functions: Plane wave expansion
  Cutoff energy: 600.000 eV
  Number of coefficients (min, max): 66642, 66743
  Pulay-stress correction: 0.000000 eV/Ang^3 (de/decut=0.000000)
  Using FFTW library
  ScaLapack parameters: grid=2x2, blocksize=64
  Wavefunction extrapolation:
    Improved wavefunction reuse through dual PAW basis

Occupation numbers: Fermi-Dirac: width=0.1000 eV

Eigensolver
   Davidson(niter=2)

Densities:
  Coarse grid: 45*42*196 grid
  Fine grid: 90*84*392 grid
  Total Charge: 0.000000

Density mixing:
  Method: separate
  Backend: pulay
  Linear mixing parameter: 0.05
  Mixing with 5 old densities
  Damping of long wave oscillations: 50

Hamiltonian:
  XC and Coulomb potentials evaluated on a 90*84*392 grid
  Using the BEEF-vdW Exchange-Correlation functional
  External potential:
    NoExternalPotential

XC parameters: BEEF-vdW with 2 nearest neighbor stencil

Total number of cores used: 32
Parallelization over k-points: 8
Domain decomposition: 1 x 1 x 4
                      2 x 2 x 8 (xc only)

Number of atoms: 82
Number of atomic orbitals: 1210
Number of bands in calculation: 522
Number of valence electrons: 862
Bands to converge: occupied

... initialized

Initializing position-dependent things.

Density initialized from atomic densities
Creating initial wave functions:
  522 bands from LCAO basis set

 |    |     Cl      Cl   |
 |Cl  Cl        Cl       |
 |    |  Cu    Cu    Cu  |
 |  CuCu   CCu   CuCu    |
 |    |  Cu    Cu  CuCu  |
 |Cu  CuCu  CuCu CuCu    |
 |  Cu|  CuCu  Cu  CuCu  |
 |Cu  CuCu  Cu     Cu    |
 |  Cu|CuCuCu  CuCu  Cu  |
 |Cu  | Cu               |
 |  CuCu CCuCu CuCuCuCu  |
 |    | Cu    Cu         |
 |  CuCuCuCuCu CuCuCu    |
 |    |            CuCu  |
 |CuCuCuCu CCuCu CuCu    |
 |    | Cl      Cl       |
 |Cu  | Cu               |
 |    |Cl        Cl  Cl  |

Positions:
   0 Cu     2.909421    0.015483   10.061248    ( 0.0000,  0.0000,  0.0000)
   1 Cu     1.598697    1.904002   11.266617    ( 0.0000,  0.0000,  0.0000)
   2 Cu     4.184549    1.902560   11.275764    ( 0.0000,  0.0000,  0.0000)
   3 Cu     0.277165    0.085004   10.039241    ( 0.0000,  0.0000,  0.0000)
   4 Cu     0.263496    0.006451   12.609932    ( 0.0000,  0.0000,  0.0000)
   5 Cu     4.199908    1.861631   13.916106    ( 0.0000,  0.0000,  0.0000)
   6 Cu     1.578023    1.855597   13.904158    ( 0.0000,  0.0000,  0.0000)
   7 Cu     2.891959    0.003530   12.616396    ( 0.0000,  0.0000,  0.0000)
   8 Cu     2.894368    0.007042   15.232657    ( 0.0000,  0.0000,  0.0000)
   9 Cu     1.582716    1.848110   16.536455    ( 0.0000,  0.0000,  0.0000)
  10 Cu     4.206454    1.853006   16.539784    ( 0.0000,  0.0000,  0.0000)
  11 Cu     0.274402   -0.003320   15.224311    ( 0.0000,  0.0000,  0.0000)
  12 Cu     0.280511    0.001447   17.852533    ( 0.0000,  0.0000,  0.0000)
  13 Cu     4.211485    1.852197   19.155588    ( 0.0000,  0.0000,  0.0000)
  14 Cu     1.592544    1.847067   19.167490    ( 0.0000,  0.0000,  0.0000)
  15 Cu     2.900923    0.000741   17.853549    ( 0.0000,  0.0000,  0.0000)
  16 Cu     2.901317    0.000307   20.467356    ( 0.0000,  0.0000,  0.0000)
  17 Cu     1.588048    1.847104   21.809512    ( 0.0000,  0.0000,  0.0000)
  18 Cu     4.214814    1.830554   21.765523    ( 0.0000,  0.0000,  0.0000)
  19 Cu     0.286917    0.007804   20.487823    ( 0.0000,  0.0000,  0.0000)
  20 Cu     0.271087    0.034003   23.153462    ( 0.0000,  0.0000,  0.0000)
  21 Cu     4.196409    1.779017   24.402563    ( 0.0000,  0.0000,  0.0000)
  22 Cu     1.574094    1.911951   24.494014    ( 0.0000,  0.0000,  0.0000)
  23 Cu     2.893468    0.033919   23.084779    ( 0.0000,  0.0000,  0.0000)
  24 Cu     2.907762    3.773361    9.989721    ( 0.0000,  0.0000,  0.0000)
  25 Cu     1.548709    5.547319   11.266546    ( 0.0000,  0.0000,  0.0000)
  26 Cu     4.208257    5.517460   11.309046    ( 0.0000,  0.0000,  0.0000)
  27 Cu     0.238921    3.653673    9.860954    ( 0.0000,  0.0000,  0.0000)
  28 Cu     0.273333    3.709007   12.579248    ( 0.0000,  0.0000,  0.0000)
  29 Cu     4.200447    5.550351   13.924137    ( 0.0000,  0.0000,  0.0000)
  30 Cu     1.585035    5.558989   13.904915    ( 0.0000,  0.0000,  0.0000)
  31 Cu     2.886985    3.720533   12.626019    ( 0.0000,  0.0000,  0.0000)
  32 Cu     2.890579    3.698044   15.234979    ( 0.0000,  0.0000,  0.0000)
  33 Cu     1.589744    5.552430   16.534553    ( 0.0000,  0.0000,  0.0000)
  34 Cu     4.201914    5.549617   16.537205    ( 0.0000,  0.0000,  0.0000)
  35 Cu     0.280474    3.707912   15.221492    ( 0.0000,  0.0000,  0.0000)
  36 Cu     0.277821    3.696977   17.853302    ( 0.0000,  0.0000,  0.0000)
  37 Cu     4.207831    5.543256   19.158567    ( 0.0000,  0.0000,  0.0000)
  38 Cu     1.588547    5.548711   19.144551    ( 0.0000,  0.0000,  0.0000)
  39 Cu     2.896395    3.697191   17.850622    ( 0.0000,  0.0000,  0.0000)
  40 Cu     2.901735    3.688665   20.474921    ( 0.0000,  0.0000,  0.0000)
  41 Cu     1.592826    5.545283   21.712515    ( 0.0000,  0.0000,  0.0000)
  42 Cu     4.209218    5.547388   21.776282    ( 0.0000,  0.0000,  0.0000)
  43 Cu     0.281899    3.683753   20.469985    ( 0.0000,  0.0000,  0.0000)
  44 Cu     0.286309    3.669293   23.100547    ( 0.0000,  0.0000,  0.0000)
  45 Cu     4.192930    5.536307   24.332761    ( 0.0000,  0.0000,  0.0000)
  46 Cu     1.630834    5.563387   24.178972    ( 0.0000,  0.0000,  0.0000)
  47 Cu     2.918453    3.648119   23.115459    ( 0.0000,  0.0000,  0.0000)
  48 Cu     6.814750    1.882361   11.293000    ( 0.0000,  0.0000,  0.0000)
  49 Cu     5.470680   -0.015580   10.212321    ( 0.0000,  0.0000,  0.0000)
  50 Cu     5.508941    0.005277   12.678597    ( 0.0000,  0.0000,  0.0000)
  51 Cu     6.819640    1.866927   13.922544    ( 0.0000,  0.0000,  0.0000)
  52 Cu     6.825098    1.853430   16.539074    ( 0.0000,  0.0000,  0.0000)
  53 Cu     5.514058    0.001715   15.246701    ( 0.0000,  0.0000,  0.0000)
  54 Cu     5.512991   -0.002188   17.856891    ( 0.0000,  0.0000,  0.0000)
  55 Cu     6.821661    1.842475   19.170790    ( 0.0000,  0.0000,  0.0000)
  56 Cu     6.828179    1.842546   21.813582    ( 0.0000,  0.0000,  0.0000)
  57 Cu     5.516310   -0.008349   20.487081    ( 0.0000,  0.0000,  0.0000)
  58 Cu     5.553665    0.004284   23.126284    ( 0.0000,  0.0000,  0.0000)
  59 Cu     6.865124    1.899079   24.533111    ( 0.0000,  0.0000,  0.0000)
[...]
  67 Cu     6.827972    5.553790   19.168882    ( 0.0000,  0.0000,  0.0000)
  68 Cu     6.837964    5.544715   21.784147    ( 0.0000,  0.0000,  0.0000)
  69 Cu     5.523290    3.695276   20.488016    ( 0.0000,  0.0000,  0.0000)
  70 Cu     5.504325    3.648679   23.127134    ( 0.0000,  0.0000,  0.0000)
  71 Cu     6.823509    5.469388   24.357348    ( 0.0000,  0.0000,  0.0000)
  72 Cl     0.700281    4.197962   26.246543    ( 0.0000,  0.0000,  0.0000)
  73 Cl     5.164758    3.622009   26.277790    ( 0.0000,  0.0000,  0.0000)
  74 Cl     0.167290    1.496324   27.523448    ( 0.0000,  0.0000,  0.0000)
  75 Cl     2.567480   -0.118146   26.172642    ( 0.0000,  0.0000,  0.0000)
  76 Cl     5.714139   -0.181035   26.223320    ( 0.0000,  0.0000,  0.0000)
[...]

[...]

Density initialized from wave functions
 |    |             Cl   |
 |    Cl                 |
 |    |       Clu     Cu |
 |Cl  |CuCu  Cu    Cu    |
 |  CuCuCl CCu   CuCu    |
 |    |CuCu  CuCu  CuCu  |
 |    Cu    Cu     Cu    |
 |  Cu|CuCuCuCuCuCuCuCu  |
 |    Cu    Cu     Cu    |
 |  Cu|  CuCu  CuCu  Cu  |
 |  CuCu CCuCu CuCuCuCu  |
 |Cu  | Cu    Cu         |
 |  CuCu CCuCu CuCuCuCu  |
 |CuCuCuCuCuCuCu CuCu    |
 |    |        Cl        |
 Cu   | Cul   Cu     Cl  |
 |    |          Cl      |

[...]

Density initialized from wave functions
 |    |             Cl   |
 |    Cl                 |
 |    |       Clu     Cu |
 |Cl  |CuCu  Cu    Cu    |
 |  CuCuCl CCu   CuCu    |
 |    |CuCu  CuCu  CuCu  |
 |    Cu    Cu     Cu    |
 |  Cu|CuCuCuCuCuCuCuCu  |
 |    Cu    Cu     Cu    |
 |  Cu|  CuCu  CuCu  Cu  |
 |  CuCu CCuCu CuCuCuCu  |
 |Cu  | Cu    Cu         |
 |  CuCu CCuCu CuCuCuCu  |
 |CuCuCuCuCuCuCu CuCu    |
 |    |        Cl        |
 Cu   | Cul   Cu     Cl  |
 |    |          Cl      |

[...]

Density initialized from wave functions
 |    Cl            Cl   |
 |    |       Clu     Cu |
 |Cl  |CuCu  Cu    Cu    |
 |  CuCuCl CCu   CuCu    |
 |    |CuCu  CuCu  CuCu  |
 |    Cu    Cu     Cu    |
 |  Cu|CuCuCuCuCuCuCuCu  |
 |    Cu    Cu     Cu    |
 |  Cu|  CuCu  CuCu  Cu  |
 |  CuCu CCuCu CuCuCuCu  |
 |Cu  | Cu    Cu         |
 |  CuCu CCuCu CuCuCuCu  |
 |CuCuCuCuCuCuCu CuCu    |
 |    |        Cl        |
 Cu   | Cul   Cu     Cl  |
 |    |          Cl      |

[...]

Density initialized from wave functions
 |    Cl            Cl   |
 |    |       Cl      Cu |
 |Cl  |CuCu  CuCu  Cu    |
 |  CuCuCl CCu   CuCu    |
 |    |CuCu  CuCu  CuCu  |
 |    Cu    Cu     Cu    |
 |  Cu|CuCuCuCuCuCuCuCu  |
 |    Cu    Cu     Cu    |
 |  Cu|  CuCu  CuCu  Cu  |
 |  CuCu CCuCu CuCuCuCu  |
 |Cu  | Cu    Cu         |
 |  CuCu CCuCu CuCuCuCu  |
 |CuCuCuCuCuCuCu CuCu    |
 |    |        Cl        |
 Cu   | Cul   Cu     Cl  |
 |    |          Cl      |

[...]

     iter     time        total  log10-change:
                         energy  eigst   dens
iter:   1 13:55:59 -5821.854228  -3.13
iter:   2 13:57:18 -5822.357268  -3.29  -2.77
iter:   3 13:58:34 -5821.737403  -3.69  -2.46
iter:   4 13:59:59 -5821.710184  -4.89  -3.11
iter:   5 14:01:26 -5821.706690c -4.80  -3.32
iter:   6 14:02:40 -5821.707338c -5.12  -3.56
iter:   7 14:03:55 -5821.705842c -5.22  -3.70
iter:   8 14:05:10 -5821.706047c -6.30  -3.94
iter:   9 14:06:37 -5821.706043c -5.95  -4.02c
iter:  10 14:08:00 -5821.705963c -6.34  -3.99
iter:  11 14:09:15 -5821.705711c -6.50  -4.01c
iter:  12 14:10:30 -5821.705721c -6.70  -4.34c
iter:  13 14:11:44 -5821.705817c -7.00  -4.47c
iter:  14 14:13:03 -5821.705709c -7.45c -4.55c

[...]

Density initialized from wave functions
 |    Cl            Cl   |
 |    |       Cl      Cu |
 |Cl  |CuCu  CuCu  Cu    |
 |  CuCuCl CCu   CuCu    |
 |    |CuCu  CuCu  CuCu  |
 |    Cu     Cu    Cu    |
 |  Cu|CuCuCuCuCuCuCuCu  |
 |    Cu    Cu     Cu    |
 |  Cu|  CuCu  CuCu  Cu  |
 |  CuCu CCuCu CuCuCuCu  |
 |Cu  | Cu    Cu         |
 |  CuCu CCuCu CuCuCuCu  |
 |CuCuCuCuCuCuCu CuCu    |
 |    |        Cl        |
 Cu   | Cul   Cu     Cl  |
 |    |          Cl      |

[...]

Density initialized from wave functions
 |    Cl            Cl   |
 |    |       Cl         |
 |Cl  |CuCu  CuCu  Cu Cu |
 |  CuCuCl CCu   CuCu    |
 |    |CuCu  CuCu  CuCu  |
 |    Cu     Cu    Cu    |
 |  Cu|CuCuCuCuCuCuCuCu  |
 |    Cu    Cu     Cu    |
 |  Cu|  CuCu  CuCu  Cu  |
 |  CuCu CCuCu CuCuCuCu  |
 |Cu  | Cu    Cu         |
 |  CuCu CCuCu CuCuCuCu  |
 |CuCuCuCuCuCuCu CuCu    |
 |    |        Cl        |
 Cu   | Cul   Cu     Cl  |
 |    |          Cl      |

[...]

Density initialized from wave functions
 |    Cl            Cl   |
 |    |       Cl         |
 |Cl  |CuCu  CuCu  Cu Cu |
 |  CuCuCl CCu   CuCu    |
 |    |CuCu  CuCu  CuCu  |
 |    Cu    Cu     Cu    |
 |  Cu|CuCuCuCuCuCuCuCu  |
 |    Cu    Cu     Cu    |
 |  Cu|  CuCu  CuCu  Cu  |
 |  CuCu CCuCu CuCuCuCu  |
 |Cu  | Cu    Cu         |
 |  CuCu CCuCu CuCuCuCu  |
 |CuCuCuCuCuCuCu CuCu    |
 |    |        Cl        |
 Cu   | Cul   Cu     Cl  |
 |    |          Cl      |

[...]

Density initialized from wave functions
 |    Cl            Cl   |
 |Cl  |       Clu        |
 |    |CuCu  Cu    Cu Cu |
 |  CuCuCl CCu   CuCu    |
 |    |CuCu  CuCu  CuCu  |
 |    Cu    Cu     Cu    |
 |  Cu|CuCuCuCuCuCuCuCu  |
 |    Cu    Cu     Cu    |
 |  Cu|  CuCu  CuCu  Cu  |
 |  CuCu CCuCu CuCuCuCu  |
 |Cu  | Cu    Cu         |
 |  CuCu CCuCu CuCuCuCu  |
 |CuCuCuCuCuCuCu CuCu    |
 |    |        Cl        |
 Cu   | Cul   Cu     Cl  |
 |    |          Cl      |

[...]

Density initialized from wave functions
 |    Cl            Cl   |
 |Cl  |       Clu     Cu |
 |    |CuCu  Cu    Cu    |
 |  CuCuCl CCu   CuCu    |
 |    |CuCu  CuCu  CuCu  |
 |    Cu    Cu     Cu    |
 |  Cu|CuCuCuCuCuCuCuCu  |
 |    Cu    Cu     Cu    |
 |  Cu|  CuCu  CuCu  Cu  |
 |  CuCu CCuCu CuCuCuCu  |
 |Cu  | Cu    Cu         |
 |  CuCu CCuCu CuCuCuCu  |
 |CuCuCuCu CCuCu CuCu    |
 |    |        Cl        |
 Cu   | Cul   Cu    Cl   |
 |    |          Cl      |

[...]

Density initialized from wave functions
 |    Cl            Cl   |
 |Cl  |       Clu     Cu |
 |    |CuCu  Cu    Cu    |
 |    | Cl               |
 |  CuCu   CCu   CuCu    |
 |    |CuCu  CuCu  CuCu  |
 |    Cu    Cu     Cu    |
 |  Cu|CuCuCuCuCuCuCuCu  |
 |    Cu    Cu     Cu    |
 |  Cu|  CuCu  CuCu  Cu  |
 |  CuCu CCuCu CuCuCuCu  |
 |Cu  | Cu    Cu         |
 |  CuCu CCuCu CuCuCuCu  |
 |CuCuCuCu CCuCu CuCu    |
 |    |        Cl        |
 Cu   | Cul   Cu    Cl   |
 |    |          Cl      |

[...]

System changes: positions

Initializing position-dependent things.

Density initialized from wave functions
 |    Cl            Cl   |
 |Cl  |       Clu     Cu |
 |    |CuCu  Cu    Cu    |
 |  CuCuCl CCu   CuCu    |
 |    |CuCu  CuCu  CuCu  |
 |    Cu    Cu     Cu    |
 |  Cu|CuCuCuCuCuCuCuCu  |
 |    Cu    Cu     Cu    |
 |  Cu|  CuCu  CuCu  Cu  |
 |  CuCu CCuCu CuCuCuCu  |
 |Cu  | Cu    Cu         |
 |  CuCu CCuCu CuCuCuCu  |
 |CuCuCuCu CCuCu CuCu    |
 |    |        Cl        |
 Cu   | Cul   Cu    Cl   |
 |    |          Cl      |

Positions:
   0 Cu     2.810858    0.127960    9.943140    ( 0.0000,  0.0000,  0.0000)
   1 Cu     1.552625    1.876609   11.358890    ( 0.0000,  0.0000,  0.0000)
   2 Cu     4.190671    1.865739   11.353224    ( 0.0000,  0.0000,  0.0000)
   3 Cu     0.107581    0.133241    9.917289    ( 0.0000,  0.0000,  0.0000)
   4 Cu     0.260866    0.022236   12.574119    ( 0.0000,  0.0000,  0.0000)
   5 Cu     4.176534    1.868575   13.936006    ( 0.0000,  0.0000,  0.0000)
   6 Cu     1.571549    1.859916   13.941298    ( 0.0000,  0.0000,  0.0000)
   7 Cu     2.877145    0.003817   12.574526    ( 0.0000,  0.0000,  0.0000)
   8 Cu     2.882529    0.003354   15.221205    ( 0.0000,  0.0000,  0.0000)
   9 Cu     1.582588    1.851124   16.553300    ( 0.0000,  0.0000,  0.0000)
  10 Cu     4.201240    1.854801   16.549967    ( 0.0000,  0.0000,  0.0000)
  11 Cu     0.262070    0.006867   15.221927    ( 0.0000,  0.0000,  0.0000)
  12 Cu     0.288577   -0.004975   17.849787    ( 0.0000,  0.0000,  0.0000)
  13 Cu     4.225685    1.836192   19.179611    ( 0.0000,  0.0000,  0.0000)
  14 Cu     1.606475    1.836687   19.178384    ( 0.0000,  0.0000,  0.0000)
  15 Cu     2.905606   -0.003836   17.857475    ( 0.0000,  0.0000,  0.0000)
  16 Cu     2.920572   -0.007885   20.496684    ( 0.0000,  0.0000,  0.0000)
  17 Cu     1.626207    1.836609   21.828297    ( 0.0000,  0.0000,  0.0000)
  18 Cu     4.241584    1.816004   21.822343    ( 0.0000,  0.0000,  0.0000)
  19 Cu     0.303528   -0.013135   20.470993    ( 0.0000,  0.0000,  0.0000)
  20 Cu     0.308821   -0.019789   23.051638    ( 0.0000,  0.0000,  0.0000)
  21 Cu     4.168295    1.940200   24.456448    ( 0.0000,  0.0000,  0.0000)
  22 Cu     1.466474    1.937897   24.483525    ( 0.0000,  0.0000,  0.0000)
  23 Cu     2.927019   -0.019286   23.134602    ( 0.0000,  0.0000,  0.0000)
  24 Cu     2.935041    3.612122    9.938036    ( 0.0000,  0.0000,  0.0000)
  25 Cu     1.562301    5.573579   11.271020    ( 0.0000,  0.0000,  0.0000)
  26 Cu     4.176236    5.571785   11.259575    ( 0.0000,  0.0000,  0.0000)
  27 Cu     0.342105    3.667008   10.004597    ( 0.0000,  0.0000,  0.0000)
  28 Cu     0.254529    3.728296   12.586280    ( 0.0000,  0.0000,  0.0000)
  29 Cu     4.182897    5.560658   13.896168    ( 0.0000,  0.0000,  0.0000)
  30 Cu     1.563572    5.572624   13.901929    ( 0.0000,  0.0000,  0.0000)
  31 Cu     2.861529    3.736242   12.570689    ( 0.0000,  0.0000,  0.0000)
  32 Cu     2.878481    3.716126   15.213420    ( 0.0000,  0.0000,  0.0000)
  33 Cu     1.583848    5.554374   16.540284    ( 0.0000,  0.0000,  0.0000)
  34 Cu     4.198611    5.556494   16.535428    ( 0.0000,  0.0000,  0.0000)
  35 Cu     0.265280    3.711612   15.215096    ( 0.0000,  0.0000,  0.0000)
  36 Cu     0.287528    3.699449   17.842927    ( 0.0000,  0.0000,  0.0000)
  37 Cu     4.221649    5.549411   19.171739    ( 0.0000,  0.0000,  0.0000)
  38 Cu     1.609311    5.543374   19.179517    ( 0.0000,  0.0000,  0.0000)
  39 Cu     2.903018    3.697530   17.843167    ( 0.0000,  0.0000,  0.0000)
  40 Cu     2.927099    3.683854   20.456591    ( 0.0000,  0.0000,  0.0000)
  41 Cu     1.620932    5.545175   21.811331    ( 0.0000,  0.0000,  0.0000)
  42 Cu     4.226189    5.548970   21.819117    ( 0.0000,  0.0000,  0.0000)
  43 Cu     0.305581    3.686623   20.456981    ( 0.0000,  0.0000,  0.0000)
  44 Cu     0.307080    3.681243   23.059049    ( 0.0000,  0.0000,  0.0000)
  45 Cu     4.292619    5.423021   24.451676    ( 0.0000,  0.0000,  0.0000)
  46 Cu     1.698937    5.474849   24.398698    ( 0.0000,  0.0000,  0.0000)
  47 Cu     2.912676    3.686653   23.039734    ( 0.0000,  0.0000,  0.0000)
  48 Cu     6.796571    1.871119   11.335684    ( 0.0000,  0.0000,  0.0000)
  49 Cu     5.403124    0.077452    9.996104    ( 0.0000,  0.0000,  0.0000)
  50 Cu     5.482031    0.007674   12.582208    ( 0.0000,  0.0000,  0.0000)
  51 Cu     6.798121    1.865876   13.936921    ( 0.0000,  0.0000,  0.0000)
  52 Cu     6.817019    1.853087   16.550449    ( 0.0000,  0.0000,  0.0000)
  53 Cu     5.494580    0.009346   15.213775    ( 0.0000,  0.0000,  0.0000)
  54 Cu     5.520583   -0.001695   17.852502    ( 0.0000,  0.0000,  0.0000)
  55 Cu     6.839097    1.841084   19.178236    ( 0.0000,  0.0000,  0.0000)
  56 Cu     6.848789    1.824124   21.808090    ( 0.0000,  0.0000,  0.0000)
  57 Cu     5.540508   -0.019856   20.490913    ( 0.0000,  0.0000,  0.0000)
  58 Cu     5.540915   -0.020463   23.122908    ( 0.0000,  0.0000,  0.0000)
  59 Cu     6.761123    1.886911   24.390845    ( 0.0000,  0.0000,  0.0000)
[...]
  67 Cu     6.842137    5.545669   19.171680    ( 0.0000,  0.0000,  0.0000)
  68 Cu     6.842351    5.530117   21.820141    ( 0.0000,  0.0000,  0.0000)
  69 Cu     5.532264    3.692606   20.451232    ( 0.0000,  0.0000,  0.0000)
  70 Cu     5.550932    3.675580   23.033688    ( 0.0000,  0.0000,  0.0000)
  71 Cu     6.995440    5.418433   24.478783    ( 0.0000,  0.0000,  0.0000)
  72 Cl     0.583219    5.263809   26.320593    ( 0.0000,  0.0000,  0.0000)
  73 Cl     4.218876    3.687497   26.005734    ( 0.0000,  0.0000,  0.0000)
  74 Cl     0.016857    2.102954   26.317973    ( 0.0000,  0.0000,  0.0000)
  75 Cl     2.719574    0.301259   25.621244    ( 0.0000,  0.0000,  0.0000)
  76 Cl     5.746770   -0.332244   25.596469    ( 0.0000,  0.0000,  0.0000)
  77 Cl     6.520387    0.286207    8.073690    ( 0.0000,  0.0000,  0.0000)
  78 Cl     2.888123    1.863408    8.390019    ( 0.0000,  0.0000,  0.0000)
  79 Cl     1.356846    5.884904    8.798638    ( 0.0000,  0.0000,  0.0000)
  80 Cl     4.383138    5.249911    8.774127    ( 0.0000,  0.0000,  0.0000)
  81 Cl     7.086204    3.448015    8.080934    ( 0.0000,  0.0000,  0.0000)

Unit cell:
           periodic     x           y           z      points  spacing
  1. axis:    yes    7.851007    0.000000    0.000000    45     0.1745
  2. axis:    yes    0.000000    7.402000    0.000000    42     0.1762
  3. axis:    yes    0.000000    0.000000   34.393512   196     0.1755

  Lengths:   7.851007   7.402000  34.393512
  Angles:   90.000000  90.000000  90.000000

Effective grid spacing dv^(1/3) = 0.1754

     iter     time        total  log10-change:
                         energy  eigst   dens
iter:   1 17:36:49 -5821.736292  -3.54
iter:   2 17:38:14 -5821.736136  -4.70  -3.41
iter:   3 17:39:30 -5821.733620c -5.65  -3.55
iter:   4 17:40:45 -5821.735740c -5.69  -3.66
iter:   5 17:42:00 -5821.733002c -5.48  -3.53
iter:   6 17:43:14 -5821.732643c -6.18  -3.90
iter:   7 17:44:30 -5821.732502c -6.42  -4.05c
iter:   8 17:45:56 -5821.732697c -6.25  -4.18c
iter:   9 17:47:10 -5821.732549c -7.10  -4.40c
iter:  10 17:48:26 -5821.732611c -6.95  -4.49c
iter:  11 17:49:41 -5821.732569c -7.34  -4.60c
iter:  12 17:50:55 -5821.732573c -7.36  -4.66c
iter:  13 17:52:11 -5821.732592c -7.91c -4.72c

Converged after 13 iterations.

Dipole moment: (-72.188157, -22.962845, -0.001373) |e|*Ang

Energy contributions relative to reference atoms: (reference = -3367094.026518)

Kinetic:       +607.670553
Potential:     -656.248834
External:        +0.000000
XC:            -5771.915156
Entropy (-ST):   -0.672139
Local:           -0.903086
Free energy:   -5822.068661
Extrapolated:  -5821.732592

Showing only first 2 kpts
 Kpt  Band  Eigenvalues  Occupancy
  0   429      0.41533    1.74170
  0   430      0.71524    0.50302
  0   431      0.76703    0.33358
  0   432      0.81957    0.21169

  1   429      0.18183    1.97169
  1   430      0.29250    1.91677
  1   431      0.39727    1.77967
  1   432      0.43427    1.69603

Fermi level: 0.60618

No gap

Forces in eV/Ang:
  0 Cu    0.00566    0.00109   -0.00531
  1 Cu   -0.00241   -0.00794   -0.00365
  2 Cu   -0.00715   -0.00479    0.00222
  3 Cu   -0.00209    0.00965    0.00062
  4 Cu    0.00059    0.00065   -0.01084
  5 Cu    0.00495    0.00015   -0.00010
  6 Cu   -0.00408   -0.00364   -0.00677
  7 Cu    0.00747   -0.00876    0.00219
  8 Cu    0.00015    0.00095   -0.00621
  9 Cu    0.00130    0.00099   -0.00737
 10 Cu    0.00271    0.00059   -0.00415
 11 Cu    0.00460   -0.00408   -0.00693
 12 Cu   -0.00480    0.00205    0.00347
 13 Cu   -0.00748   -0.00075   -0.00026
 14 Cu   -0.00503    0.01136    0.00100
 15 Cu   -0.00385    0.00263   -0.00575
 16 Cu   -0.00471    0.00147    0.00001
 17 Cu   -0.00222   -0.00239   -0.00416
 18 Cu   -0.00412    0.00814    0.00108
 19 Cu    0.00242    0.00416   -0.00220
 20 Cu    0.00090    0.00335   -0.00316
 21 Cu    0.00517    0.00105    0.00695
 22 Cu    0.01064    0.00509    0.00414
 23 Cu   -0.00556    0.00808    0.00409
 24 Cu   -0.00610   -0.00060   -0.00741
 25 Cu    0.00403   -0.00317   -0.00487
 26 Cu    0.00544   -0.00949   -0.00250
 27 Cu   -0.00339   -0.00117    0.01281
 28 Cu    0.01384   -0.00417    0.00893
 29 Cu    0.00546   -0.00255    0.00145
 30 Cu   -0.00004   -0.00469   -0.00571
 31 Cu    0.00347   -0.00825    0.00051
 32 Cu    0.00678    0.00117   -0.00132
 33 Cu    0.00112    0.00025   -0.00450
 34 Cu    0.00421   -0.00329    0.00443
 35 Cu    0.00097   -0.00612   -0.00092
 36 Cu   -0.00654    0.00295   -0.00563
 37 Cu   -0.00097   -0.00134    0.00539
 38 Cu   -0.00690    0.00089   -0.01130
 39 Cu   -0.00240    0.00053    0.00131
 40 Cu   -0.00445    0.00059    0.00235
 41 Cu   -0.00610   -0.00372   -0.00647
 42 Cu   -0.00784    0.00889   -0.00251
 43 Cu   -0.00521    0.00760    0.00079
 44 Cu    0.00561    0.00204   -0.00468
 45 Cu   -0.00734    0.00086    0.00571
 46 Cu   -0.00331    0.01213   -0.00525
 47 Cu    0.00668    0.00552    0.00040
 48 Cu   -0.00626   -0.00193    0.00342
 49 Cu    0.01355   -0.01143   -0.00279
 50 Cu    0.00802    0.00330    0.00889
 51 Cu    0.00561   -0.00708   -0.00171
 52 Cu    0.00633   -0.00256    0.00355
 53 Cu    0.00752   -0.00154    0.01033
 54 Cu   -0.00142   -0.00102    0.00448
 55 Cu   -0.00240    0.00567    0.00073
 56 Cu   -0.01419    0.00424   -0.00983
 57 Cu   -0.00150    0.00375    0.00730
 58 Cu   -0.00449    0.00103    0.00845
 59 Cu    0.01355    0.00060    0.00275
[...]
 67 Cu   -0.00515    0.00389    0.00479
 68 Cu   -0.00022    0.00062    0.01077
 69 Cu    0.00282    0.00379    0.00861
 70 Cu   -0.00001    0.00873    0.00673
 71 Cu   -0.00367   -0.00840   -0.00500
 72 Cl    0.00047   -0.00617   -0.01460
 73 Cl    0.00490    0.00579   -0.00003
 74 Cl    0.00029    0.00175   -0.01375
 75 Cl    0.00606    0.00444   -0.02839
 76 Cl   -0.01155   -0.00509    0.00396
 77 Cl   -0.00067    0.00832    0.02439
 78 Cl   -0.00673   -0.00387   -0.00099
 79 Cl    0.00806    0.00358   -0.00758
 80 Cl   -0.00296   -0.00393    0.02625
 81 Cl   -0.00341   -0.00630   -0.01168