User:   thorkong@node033.cluster
Date:   Mon Oct 17 14:44:19 2022
Arch:   x86_64
Pid:    27008
Python: 3.10.5
gpaw:   /groups/kemi/thorkong/miniconda3/envs/gpaw22/lib/python3.10/site-packages/gpaw
_gpaw:  /groups/kemi/thorkong/miniconda3/envs/gpaw22/lib/python3.10/site-packages/
        _gpaw.cpython-310-x86_64-linux-gnu.so
ase:    /groups/kemi/thorkong/miniconda3/envs/gpaw22/lib/python3.10/site-packages/ase (version 3.22.1)
numpy:  /groups/kemi/thorkong/miniconda3/envs/gpaw22/lib/python3.10/site-packages/numpy (version 1.23.0)
scipy:  /groups/kemi/thorkong/miniconda3/envs/gpaw22/lib/python3.10/site-packages/scipy (version 1.8.1)
units:  Angstrom and eV
cores: 32
OpenMP: True
OMP_NUM_THREADS: 1

Input parameters:
  basis: dzp
  kpts: [4 4 1]
  mode: {ecut: 600.0,
         name: pw}
  xc: BEEF-vdW

System changes: positions, numbers, cell, pbc, initial_charges, initial_magmoms

Initialize ...

Cu-setup:
  name: Copper
  id: f1c4d45d90492f1bbfdcb091e8418fdf
  Z: 29.0
  valence: 11
  core: 18
  charge: 0.0
  file: /groups/kemi/thorkong/miniconda3/envs/gpaw22/share/gpaw/Cu.PBE.gz
  compensation charges: gauss, rc=0.33, lmax=2
  cutoffs: 2.06(filt), 2.43(core),
  valence states:
                energy  radius
    4s(1.00)    -4.609   1.164
    4p(0.00)    -0.698   1.164
    3d(10.00)    -5.039   1.058
    *s          22.603   1.164
    *p          26.513   1.164
    *d          22.172   1.058

  LCAO basis set for Cu:
    Name: dzp
    File: /groups/kemi/thorkong/miniconda3/envs/gpaw22/share/gpaw/Cu.dzp.basis.gz
    Number of radial functions: 5
    Number of spherical harmonics: 15
      l=0, rc=8.9688 Bohr: 4s-sz confined orbital
      l=2, rc=5.1719 Bohr: 3d-sz confined orbital
      l=0, rc=5.3281 Bohr: 4s-dz split-valence wave
      l=2, rc=3.1406 Bohr: 3d-dz split-valence wave
      l=1, rc=8.9688 Bohr: p-type Gaussian polarization

Cl-setup:
  name: Chlorine
  id: 726897f06f34e53cf8e33b5885a02604
  Z: 17.0
  valence: 7
  core: 10
  charge: 0.0
  file: /groups/kemi/thorkong/miniconda3/envs/gpaw22/share/gpaw/Cl.PBE.gz
  compensation charges: gauss, rc=0.25, lmax=2
  cutoffs: 1.40(filt), 1.49(core),
  valence states:
                energy  radius
    3s(2.00)   -20.689   0.794
    3p(5.00)    -8.594   0.794
    *s           6.523   0.794
    *p          18.617   0.794
    *d           0.000   0.794

  LCAO basis set for Cl:
    Name: dzp
    File: /groups/kemi/thorkong/miniconda3/envs/gpaw22/share/gpaw/Cl.dzp.basis.gz
    Number of radial functions: 5
    Number of spherical harmonics: 13
      l=0, rc=5.1719 Bohr: 3s-sz confined orbital
      l=1, rc=6.2656 Bohr: 3p-sz confined orbital
      l=0, rc=2.8281 Bohr: 3s-dz split-valence wave
      l=1, rc=3.5156 Bohr: 3p-dz split-valence wave
      l=2, rc=6.2656 Bohr: d-type Gaussian polarization

Reference energy: -2581817.792169

Spin-paired calculation

Convergence criteria:
 Maximum [total energy] change in last 3 cyles: 0.0005 eV / electron
 Maximum integral of absolute [dens]ity change: 0.0001 electrons / valence electron
 Maximum integral of absolute [eigenst]ate change: 4e-08 eV^2 / valence electron
 Maximum number of scf [iter]ations: 333
 (Square brackets indicate name in SCF output, whereas a 'c' in
 the SCF output indicates the quantity has converged.)

Symmetries present (total): 1

  ( 1  0  0)
  ( 0  1  0)
  ( 0  0  1)

16 k-points: 4 x 4 x 1 Monkhorst-Pack grid
8 k-points in the irreducible part of the Brillouin zone
       k-points in crystal coordinates                weights
   0:     0.12500000   -0.37500000    0.00000000          2/16
   1:     0.12500000   -0.12500000    0.00000000          2/16
   2:     0.12500000    0.12500000    0.00000000          2/16
   3:     0.12500000    0.37500000    0.00000000          2/16
   4:     0.37500000   -0.37500000    0.00000000          2/16
   5:     0.37500000   -0.12500000    0.00000000          2/16
   6:     0.37500000    0.12500000    0.00000000          2/16
   7:     0.37500000    0.37500000    0.00000000          2/16

Wave functions: Plane wave expansion
  Cutoff energy: 600.000 eV
  Number of coefficients (min, max): 63070, 63184
  Pulay-stress correction: 0.000000 eV/Ang^3 (de/decut=0.000000)
  Using FFTW library
  ScaLapack parameters: grid=2x2, blocksize=64
  Wavefunction extrapolation:
    Improved wavefunction reuse through dual PAW basis

Occupation numbers: Fermi-Dirac: width=0.1000 eV

Eigensolver
   Davidson(niter=2)

Densities:
  Coarse grid: 45*48*175 grid
  Fine grid: 90*96*350 grid
  Total Charge: 0.000000

Density mixing:
  Method: separate
  Backend: pulay
  Linear mixing parameter: 0.05
  Mixing with 5 old densities
  Damping of long wave oscillations: 50

Hamiltonian:
  XC and Coulomb potentials evaluated on a 90*96*350 grid
  Using the BEEF-vdW Exchange-Correlation functional
  External potential:
    NoExternalPotential

XC parameters: BEEF-vdW with 2 nearest neighbor stencil

Total number of cores used: 32
Parallelization over k-points: 8
Domain decomposition: 1 x 1 x 4
                      2 x 2 x 8 (xc only)

Number of atoms: 66
Number of atomic orbitals: 966
Number of bands in calculation: 411
Number of valence electrons: 678
Bands to converge: occupied

... initialized

Initializing position-dependent things.

Density initialized from atomic densities
Creating initial wave functions:
  411 bands from LCAO basis set

            Cl          Cl

                Cl
        Cl Cu  ClCu  Cl Cu

         Cu    Cu    CCu    Cu
       Cu    Cu    Cu     Cu
              Cu    Cu
           Cu    CCu    Cu
         Cu    Cu    CCu    Cu

       Cu    CCu   CCu    Cu
           Cu    CCu   CCu

         Cu    Cu    CCu    Cu
             Cu     Cu    Cu
       Cu     Cu    Cu
           Cu Cl  CuCl  Cu Cl

                   Cl
          Cl           Cl

Positions:
   0 Cu     1.851874    1.842086   10.044767    ( 0.0000,  0.0000,  0.0000)
   1 Cu     0.572048    0.518337   11.854739    ( 0.0000,  0.0000,  0.0000)
   2 Cu     3.208369    0.549454   11.826759    ( 0.0000,  0.0000,  0.0000)
   3 Cu     1.885044    1.836608   13.699605    ( 0.0000,  0.0000,  0.0000)
   4 Cu     0.579320    0.526826   15.560947    ( 0.0000,  0.0000,  0.0000)
   5 Cu     3.185437    0.522508   15.555968    ( 0.0000,  0.0000,  0.0000)
   6 Cu     1.901068    1.854575   17.424612    ( 0.0000,  0.0000,  0.0000)
   7 Cu     0.575906    0.561899   19.206760    ( 0.0000,  0.0000,  0.0000)
   8 Cu     3.188310    0.488633   19.210481    ( 0.0000,  0.0000,  0.0000)
   9 Cu     0.574574    3.144633   11.846476    ( 0.0000,  0.0000,  0.0000)
  10 Cu     0.575916    3.143785   15.552326    ( 0.0000,  0.0000,  0.0000)
  11 Cu     0.546349    3.145891   19.206137    ( 0.0000,  0.0000,  0.0000)
  12 Cu     7.147069    1.821677   10.043621    ( 0.0000,  0.0000,  0.0000)
  13 Cu     5.794000    0.540777   11.820405    ( 0.0000,  0.0000,  0.0000)
  14 Cu     7.114080    1.831917   13.694773    ( 0.0000,  0.0000,  0.0000)
  15 Cu     5.808982    0.523918   15.556714    ( 0.0000,  0.0000,  0.0000)
  16 Cu     7.113100    1.827061   17.396972    ( 0.0000,  0.0000,  0.0000)
  17 Cu     5.807880    0.526790   19.217827    ( 0.0000,  0.0000,  0.0000)
  18 Cu     4.494064    1.763231    9.932089    ( 0.0000,  0.0000,  0.0000)
  19 Cu     4.496146    4.525263    9.931071    ( 0.0000,  0.0000,  0.0000)
  20 Cu     3.207669    3.147945   11.830838    ( 0.0000,  0.0000,  0.0000)
  21 Cu     5.791432    3.139321   11.831411    ( 0.0000,  0.0000,  0.0000)
  22 Cu     4.501104    1.833097   13.705422    ( 0.0000,  0.0000,  0.0000)
  23 Cu     4.500286    4.451342   13.700374    ( 0.0000,  0.0000,  0.0000)
  24 Cu     3.191019    3.143173   15.550169    ( 0.0000,  0.0000,  0.0000)
  25 Cu     5.806714    3.142761   15.552225    ( 0.0000,  0.0000,  0.0000)
  26 Cu     4.483820    1.848780   17.430757    ( 0.0000,  0.0000,  0.0000)
  27 Cu     4.483576    4.446716   17.420218    ( 0.0000,  0.0000,  0.0000)
  28 Cu     3.195113    3.070202   19.320757    ( 0.0000,  0.0000,  0.0000)
  29 Cu     5.840799    3.127025   19.209886    ( 0.0000,  0.0000,  0.0000)
  30 Cu     1.850636    4.467419   10.041562    ( 0.0000,  0.0000,  0.0000)
  31 Cu     1.883456    7.067453   10.032493    ( 0.0000,  0.0000,  0.0000)
  32 Cu     0.578168    5.767618   11.853682    ( 0.0000,  0.0000,  0.0000)
  33 Cu     3.207330    5.746015   11.820678    ( 0.0000,  0.0000,  0.0000)
  34 Cu     1.884398    4.451712   13.698510    ( 0.0000,  0.0000,  0.0000)
  35 Cu     1.882140    7.070634   13.694193    ( 0.0000,  0.0000,  0.0000)
  36 Cu     0.577138    5.762455   15.555937    ( 0.0000,  0.0000,  0.0000)
  37 Cu     3.190200    5.761333   15.545038    ( 0.0000,  0.0000,  0.0000)
  38 Cu     1.899950    4.455283   17.419419    ( 0.0000,  0.0000,  0.0000)
  39 Cu     1.897387    7.053708   17.430112    ( 0.0000,  0.0000,  0.0000)
  40 Cu     0.544416    5.772752   19.207193    ( 0.0000,  0.0000,  0.0000)
  41 Cu     3.197353    5.832220   19.317966    ( 0.0000,  0.0000,  0.0000)
  42 Cu     7.144990    4.448863   10.045121    ( 0.0000,  0.0000,  0.0000)
  43 Cu     7.115261    7.033008   10.044024    ( 0.0000,  0.0000,  0.0000)
  44 Cu     5.790284    5.740371   11.826573    ( 0.0000,  0.0000,  0.0000)
  45 Cu     7.115409    4.450638   13.698320    ( 0.0000,  0.0000,  0.0000)
  46 Cu     7.111993    7.067752   13.689826    ( 0.0000,  0.0000,  0.0000)
  47 Cu     5.806194    5.757852   15.551058    ( 0.0000,  0.0000,  0.0000)
  48 Cu     7.116689    4.449777   17.404260    ( 0.0000,  0.0000,  0.0000)
  49 Cu     7.119110    7.076103   17.395949    ( 0.0000,  0.0000,  0.0000)
  50 Cu     5.839650    5.752596   19.206190    ( 0.0000,  0.0000,  0.0000)
  51 Cu     4.502840    7.106124   10.040718    ( 0.0000,  0.0000,  0.0000)
  52 Cu     4.505854    7.072213   13.694900    ( 0.0000,  0.0000,  0.0000)
  53 Cu     4.482985    7.045347   17.423899    ( 0.0000,  0.0000,  0.0000)
  54 Cl     3.111134    4.453599   21.202893    ( 0.0000,  0.0000,  0.0000)
  55 Cl     4.580310    3.143724    8.048163    ( 0.0000,  0.0000,  0.0000)
  56 Cl     1.867046    5.767436    8.237027    ( 0.0000,  0.0000,  0.0000)
  57 Cl     0.561128    1.853895   21.006449    ( 0.0000,  0.0000,  0.0000)
  58 Cl     5.840224    7.039810   21.008038    ( 0.0000,  0.0000,  0.0000)
  59 Cl     7.093286    0.367959    8.057112    ( 0.0000,  0.0000,  0.0000)
  60 Cl     7.130126    5.740935    8.244573    ( 0.0000,  0.0000,  0.0000)
  61 Cl     5.824339    1.826908   21.013856    ( 0.0000,  0.0000,  0.0000)
  62 Cl     0.561128    7.353895   21.006449    ( 0.0000,  0.0000,  0.0000)
  63 Cl     1.699919    0.405738    8.070012    ( 0.0000,  0.0000,  0.0000)
  64 Cl     4.498586    5.754186    8.240800    ( 0.0000,  0.0000,  0.0000)
  65 Cl     3.192734    1.840401   21.010153    ( 0.0000,  0.0000,  0.0000)

Unit cell:
           periodic     x           y           z      points  spacing
  1. axis:    yes    7.851007    0.000000    0.000000    45     0.1655
  2. axis:    yes    2.617002    7.851007    0.000000    48     0.1636
  3. axis:    yes    0.000000    0.000000   30.683867   175     0.1753

  Lengths:   7.851007   8.275688  30.683867
[...]
        Cu    Cu           Cl
            Cu    Cul   Cu
           Cl         Cl

[...]

     iter     time        total  log10-change:
                         energy  eigst   dens
iter:   1 22:07:16 -4528.401350  -1.71
iter:   2 22:08:13 -4528.197194  -2.74  -2.32
iter:   3 22:09:09 -4528.190614c -3.19  -2.45
iter:   4 22:10:05 -4527.906077c -3.59  -2.45
iter:   5 22:11:01 -4527.833910  -3.28  -2.67
iter:   6 22:12:13 -4527.830297c -4.09  -2.95
iter:   7 22:13:17 -4527.825888c -4.86  -3.01
iter:   8 22:14:31 -4527.827791c -4.08  -3.06
iter:   9 22:15:42 -4527.824536c -4.92  -3.30
iter:  10 22:16:50 -4527.817238c -4.67  -3.36
iter:  11 22:17:48 -4527.815593c -5.03  -3.54
iter:  12 22:18:47 -4527.815644c -5.53  -3.68
iter:  13 22:19:44 -4527.815552c -5.62  -3.80
iter:  14 22:20:45 -4527.815404c -6.47  -3.99
iter:  15 22:21:51 -4527.815357c -6.11  -4.06c
iter:  16 22:22:52 -4527.815261c -6.80  -4.31c
iter:  17 22:23:56 -4527.815333c -7.23  -4.40c
iter:  18 22:25:02 -4527.815293c -6.94  -4.42c
iter:  19 22:26:01 -4527.815297c -7.71c -4.58c

[...]

              Cl         Cl
        Cl Cu     Cu    Cu
                 Cl   Cu    Cu
          Cu   CCu    Cu
              Cu    CCu    Cu
       Cu
           CCu    Cu    CCu
          Cu   CCu    Cu    Cu

        Cu    Cu    CCu   Cu
           CCu    Cu    CCu
                             Cu
         Cu     Cu    Cu
              Cu    CCu   Cu
        Cu    Cu
            Cu    Cul   Cu Cl
           Cl         Cl

[...]

        Cu    Cu    CCu   Cu
           CCu    Cu    CCu
                             Cu
         Cu     Cu    Cu
              Cu    Cu    Cu
        Cu    Cu     Cu
            Cu    Cul    CuCl
           Cl         Cl

[...]

              Cl         Cl
        Cl Cu     Cu    Cu
                 Cl   Cu    Cu
          Cu   CCu    Cu
              Cu    CCu    Cu
       Cu
           CCu    Cu    CCu
          Cu   CCu    Cu    Cu

        Cu    Cu    CCu   Cu
           CCu    Cu    CCu
                             Cu
         Cu     Cu    Cu
              Cu    Cu    Cu
        Cu    Cu   ClCu
            Cu    Cu     Cu Cl
           Cl         Cl

[...]

              Cl         Cl
        Cl Cu     Cu    Cu
                  Cl        Cu
          Cu   CCu    Cu
              Cu    CCu    Cu
        Cu
           CCu    Cu    CCu
          Cu   CCu    Cu    Cu

[...]

              Cl         Cl
        Cl Cu     Cu    Cu
               Cu Cl
          Cu    Cu    Cu    Cu
              Cu    CCu    Cu
        Cu    Cu
           CCu    Cu    CCu
          Cu   CCu    Cu    Cu

        Cu    Cu    CCu    Cu
           CCu    Cu    CCu
                             Cu
         Cu     Cu    Cu
              Cu    Cu     Cu
        Cu    Cu   ClCu
            Cu    Cu     Cu Cl
           Cl         Cl

[...]

              Cl         Cl
        Cl Cu     Cu    Cu
               Cu Cl
          Cu    Cu    Cu    Cu
              Cu    CCu    Cu
        Cu    Cu
           CCu    Cu    CCu
          Cu   CCu    CCu   Cu

        Cu    Cu    CCu    Cu
           CCu    Cu    CCu
                             Cu
          Cu    Cu    Cu
              Cu    Cu     Cu
        Cu    Cu  Cl Cu
            Cu    Cu     Cu Cl
           Cl         Cl

[...]

              Cl         Cl
        Cl Cu     Cu    Cu
               Cu Cl
          Cu    Cu    Cu    Cu
              Cu    CCu    Cu
        Cu    Cu
           CCu    Cu    CCu
          Cu   CCu    CCu   Cu

        Cu    Cu    CCu    Cu
           CCu    CCu   CCu
                             Cu
          Cu    Cu    CCu
              Cu    Cu     Cu
        Cu     Cu Cl Cu
            Cu    Cu     Cu Cl
           Cl         Cl

[...]

               Cl        Cl
        Cl Cu     Cu    Cu
               Cu Cl
          Cu    Cu    Cu    Cu
              Cu    CCu    Cu
        Cu    Cu
           CCu    Cu    CCu
          Cu    Cu    CCu   Cu

        Cu    Cu    CCu    Cu
            Cu    CCu   CCu

          Cu    Cu    CCu    Cu
              Cu    Cu     Cu
        Cu     Cu Cl Cu
            Cu    Cu     Cu Cl
           Cl         Cl

[...]

               Cl        Cl
        Cl Cu     Cu    Cu
                  Cl
          Cu   CCu    Cu    Cu
              Cu    CCu    Cu
        Cu    Cu
           CCu    Cu    CCu
          Cu    Cu    CCu   Cu

        Cu    Cu    CCu    Cu
            Cu    CCu   CCu

          Cu    Cu    CCu    Cu
              Cu    Cu     Cu
        Cu    Cu  Cl Cu
            Cu    Cu     Cu Cl
           Cl         Cl

[...]

               Cl        Cl
        Cl Cu     Cu    Cu
                  Cl
          Cu   CCu    Cu    Cu
              Cu    CCu    Cu
        Cu    Cu
           CCu    Cu    CCu
          Cu    Cu    CCu   Cu

        Cu    Cu    CCu    Cu
            Cu    CCu   CCu
                      Cu
          Cu    Cu     Cu    Cu
              Cu    Cu     Cu
        Cu    Cu  Cl Cu
            Cu    Cu     Cu Cl
           Cl         Cl

[...]

        Cu    Cu    CCu    Cu
            Cu    CCu   CCu
                      Cu
          Cu    Cu     Cu   Cu
              Cu    Cu     Cu
        Cu    Cu  Cl Cu
            Cu    Cu     Cu Cl
           Cl         Cl

[...]

        Cu    Cu    CCu    Cu
            Cu    Cu    CCu
                      Cu
          Cu    Cu     Cu   Cu
        Cu    Cu    Cu     Cu
              Cu  Cl Cu
            Cu    Cu     Cu Cl
           Cl         Cl

[...]

               Cl        Cl
        Cl Cu     Cu    Cu
               Cu Cl
          Cu    Cu    Cu    Cu
              Cu    CCu    Cu
        Cu    Cu
           CCu    Cu    CCu
          Cu    Cu    CCu   Cu

        Cu    Cu    CCu    Cu
           CCu    Cu    CCu
                      Cu
          Cu   CCu     Cu   Cu
              Cu    Cu     Cu
        Cu    Cu  Cl Cu
            Cu    Cu     Cu Cl
           Cl         Cl

[...]

               Cl        Cl
        Cl Cu     Cu    Cu
               Cu Cl        Cu
          Cu    Cu    Cu
              Cu    CCu    Cu
        Cu    Cu
           CCu    Cu    CCu
          Cu   CCu    CCu   Cu

[...]

               Cl        Cl
        Cl Cu     Cu    Cu
               Cu Cl        Cu
          Cu    Cu    Cu
        Cu    Cu    CCu    Cu
              Cu
           CCu    Cu    CCu
          Cu   CCu    CCu   Cu

[...]

               Cl        Cl
        Cl Cu     Cu    Cu
               Cu Cl  Cu    Cu
          Cu    Cu    Cu
              Cu    CCu    Cu
        Cu    Cu
           CCu    Cu    CCu
          Cu   CCu    CCu   Cu

[...]

        Cu    Cu    CCu    Cu
           CCu    Cu    CCu

          Cu   CCu    CCu   Cu
              Cu    Cu     Cu
        Cu    Cu  Cl Cu
            Cu    Cu     Cu Cl
           Cl        Cl

[...]

System changes: positions

Initializing position-dependent things.

Density initialized from wave functions

[...]

               Cl        Cl
        Cl Cu     Cu    Cu
               Cu Cl  Cu    Cu
          Cu    Cu    Cu
        Cu    Cu    CCu    Cu
              Cu
           CCu    Cu    CCu
          Cu   CCu    CCu   Cu

        Cu    Cu    CCu    Cu
           CCu    Cu    CCu
                      Cu
          Cu   CCu     Cu   Cu
              Cu    Cu     Cu
        Cu    Cu  Cl Cu
            Cu    Cu     Cu Cl
           Cl        Cl

              Cl        Cl

Positions:
   0 Cu     1.864445    1.847695   10.085983    ( 0.0000,  0.0000,  0.0000)
   1 Cu     0.542098    0.535059   11.848101    ( 0.0000,  0.0000,  0.0000)
   2 Cu     3.194423    0.516753   11.861086    ( 0.0000,  0.0000,  0.0000)
   3 Cu     1.873246    1.839196   13.694271    ( 0.0000,  0.0000,  0.0000)
   4 Cu     0.567757    0.523440   15.535351    ( 0.0000,  0.0000,  0.0000)
   5 Cu     3.193375    0.526741   15.540853    ( 0.0000,  0.0000,  0.0000)
   6 Cu     1.855358    1.831813   17.385889    ( 0.0000,  0.0000,  0.0000)
   7 Cu     0.559494    0.525412   19.283405    ( 0.0000,  0.0000,  0.0000)
   8 Cu     3.192984    0.510785   19.239807    ( 0.0000,  0.0000,  0.0000)
   9 Cu     0.554566    3.162627   11.831956    ( 0.0000,  0.0000,  0.0000)
  10 Cu     0.571611    3.142011   15.541945    ( 0.0000,  0.0000,  0.0000)
  11 Cu     0.555310    3.126338   19.359414    ( 0.0000,  0.0000,  0.0000)
  12 Cu     7.108311    1.828852    9.873460    ( 0.0000,  0.0000,  0.0000)
  13 Cu     5.810210    0.527510   11.816684    ( 0.0000,  0.0000,  0.0000)
  14 Cu     7.112216    1.839435   13.695107    ( 0.0000,  0.0000,  0.0000)
  15 Cu     5.815976    0.526402   15.543646    ( 0.0000,  0.0000,  0.0000)
  16 Cu     7.119342    1.816942   17.423480    ( 0.0000,  0.0000,  0.0000)
  17 Cu     5.842720    0.502600   19.340487    ( 0.0000,  0.0000,  0.0000)
  18 Cu     4.473371    1.818683   10.019060    ( 0.0000,  0.0000,  0.0000)
  19 Cu     4.541375    4.461946   10.078791    ( 0.0000,  0.0000,  0.0000)
  20 Cu     3.201070    3.152664   11.894484    ( 0.0000,  0.0000,  0.0000)
  21 Cu     5.841569    3.142051   11.828524    ( 0.0000,  0.0000,  0.0000)
  22 Cu     4.512033    1.836243   13.698950    ( 0.0000,  0.0000,  0.0000)
  23 Cu     4.514677    4.458391   13.706717    ( 0.0000,  0.0000,  0.0000)
  24 Cu     3.184585    3.139415   15.538229    ( 0.0000,  0.0000,  0.0000)
  25 Cu     5.819235    3.137178   15.549160    ( 0.0000,  0.0000,  0.0000)
  26 Cu     4.506657    1.808267   17.383894    ( 0.0000,  0.0000,  0.0000)
  27 Cu     4.499251    4.449011   17.349077    ( 0.0000,  0.0000,  0.0000)
  28 Cu     3.166010    3.134135   19.149479    ( 0.0000,  0.0000,  0.0000)
  29 Cu     5.770702    3.100734   19.218475    ( 0.0000,  0.0000,  0.0000)
  30 Cu     1.933856    4.488604   10.022404    ( 0.0000,  0.0000,  0.0000)
  31 Cu     1.852631    7.087103    9.923621    ( 0.0000,  0.0000,  0.0000)
  32 Cu     0.571183    5.777463   11.813776    ( 0.0000,  0.0000,  0.0000)
  33 Cu     3.192387    5.785528   11.858710    ( 0.0000,  0.0000,  0.0000)
  34 Cu     1.878234    4.463645   13.693633    ( 0.0000,  0.0000,  0.0000)
  35 Cu     1.874335    7.069525   13.698083    ( 0.0000,  0.0000,  0.0000)
  36 Cu     0.578977    5.759764   15.546835    ( 0.0000,  0.0000,  0.0000)
  37 Cu     3.185305    5.763244   15.542500    ( 0.0000,  0.0000,  0.0000)
  38 Cu     1.854064    4.457932   17.406642    ( 0.0000,  0.0000,  0.0000)
  39 Cu     1.875517    7.070140   17.420041    ( 0.0000,  0.0000,  0.0000)
  40 Cu     0.570404    5.766408   19.368938    ( 0.0000,  0.0000,  0.0000)
  41 Cu     3.208001    5.776044   19.218852    ( 0.0000,  0.0000,  0.0000)
  42 Cu     7.147720    4.466726    9.867947    ( 0.0000,  0.0000,  0.0000)
  43 Cu     7.135475    7.064708    9.932045    ( 0.0000,  0.0000,  0.0000)
  44 Cu     5.841168    5.764881   11.847491    ( 0.0000,  0.0000,  0.0000)
  45 Cu     7.124686    4.457666   13.699195    ( 0.0000,  0.0000,  0.0000)
  46 Cu     7.125152    7.075471   13.702558    ( 0.0000,  0.0000,  0.0000)
  47 Cu     5.822695    5.761944   15.547935    ( 0.0000,  0.0000,  0.0000)
  48 Cu     7.139613    4.435545   17.411991    ( 0.0000,  0.0000,  0.0000)
  49 Cu     7.145691    7.060736   17.401898    ( 0.0000,  0.0000,  0.0000)
  50 Cu     5.823673    5.745594   19.170770    ( 0.0000,  0.0000,  0.0000)
  51 Cu     4.494309    7.082157   10.003629    ( 0.0000,  0.0000,  0.0000)
  52 Cu     4.502503    7.071051   13.701278    ( 0.0000,  0.0000,  0.0000)
  53 Cu     4.498456    7.079096   17.381615    ( 0.0000,  0.0000,  0.0000)
  54 Cl     2.267347    4.422965   20.886536    ( 0.0000,  0.0000,  0.0000)
  55 Cl     5.369415    3.153609    8.329582    ( 0.0000,  0.0000,  0.0000)
  56 Cl     1.032181    3.157744    8.338082    ( 0.0000,  0.0000,  0.0000)
  57 Cl     0.283358    1.726796   21.215680    ( 0.0000,  0.0000,  0.0000)
  58 Cl     4.626468    6.976105   20.835070    ( 0.0000,  0.0000,  0.0000)
  59 Cl     6.966592    0.467648    7.984761    ( 0.0000,  0.0000,  0.0000)
  60 Cl     7.311626    5.848469    7.990238    ( 0.0000,  0.0000,  0.0000)
  61 Cl     6.608633    4.434905   20.925446    ( 0.0000,  0.0000,  0.0000)
  62 Cl     0.662980    7.103053   21.275783    ( 0.0000,  0.0000,  0.0000)
  63 Cl     3.033492    0.623499    8.407710    ( 0.0000,  0.0000,  0.0000)
  64 Cl     3.372239    5.682909    8.402471    ( 0.0000,  0.0000,  0.0000)
  65 Cl     4.301374    1.910491   20.839034    ( 0.0000,  0.0000,  0.0000)

Unit cell:
           periodic     x           y           z      points  spacing
  1. axis:    yes    7.851007    0.000000    0.000000    45     0.1655
  2. axis:    yes    2.617002    7.851007    0.000000    48     0.1636
  3. axis:    yes    0.000000    0.000000   30.683867   175     0.1753

  Lengths:   7.851007   8.275688  30.683867
  Angles:   90.000000  90.000000  71.565053

Effective grid spacing dv^(1/3) = 0.1710

     iter     time        total  log10-change:
                         energy  eigst   dens
iter:   1 03:09:50 -4528.567236  -4.03
iter:   2 03:10:37 -4528.566473  -5.23  -3.64
iter:   3 03:11:25 -4528.565473c -6.01  -3.72
iter:   4 03:12:12 -4528.565162c -5.52  -3.85
iter:   5 03:13:01 -4528.565140c -6.60  -4.08c
iter:   6 03:13:48 -4528.565098c -6.62  -4.22c
iter:   7 03:14:36 -4528.565074c -6.88  -4.41c
iter:   8 03:15:24 -4528.565087c -7.11  -4.56c
iter:   9 03:16:12 -4528.565078c -7.43c -4.76c

Converged after 9 iterations.

Dipole moment: (-4.165384, -38.139404, 0.002676) |e|*Ang

Energy contributions relative to reference atoms: (reference = -2581817.792169)

Kinetic:       +540.646353
Potential:     -563.302516
External:        +0.000000
XC:            -4504.878870
Entropy (-ST):   -0.594049
Local:           -0.733020
Free energy:   -4528.862102
Extrapolated:  -4528.565078

Showing only first 2 kpts
 Kpt  Band  Eigenvalues  Occupancy
  0   337     -0.65825    1.85432
  0   338     -0.58468    1.71830
  0   339     -0.52796    1.55148
  0   340     -0.45873    1.26767

  1   337     -0.57848    1.70294
  1   338     -0.35356    0.75368
  1   339     -0.30873    0.55726
  1   340     -0.24283    0.33311

Fermi level: -0.40386

No gap

Forces in eV/Ang:
  0 Cu   -0.01169   -0.00036   -0.00215
  1 Cu    0.00551    0.00254   -0.00185
  2 Cu    0.00532   -0.00378   -0.00592
  3 Cu    0.00376   -0.01050    0.00302
  4 Cu   -0.00073   -0.00029    0.00702
  5 Cu   -0.00651    0.00089    0.00266
  6 Cu    0.00166    0.00492   -0.00091
  7 Cu    0.00532    0.00231   -0.00423
  8 Cu    0.00340    0.00602   -0.01229
  9 Cu   -0.00116    0.00743   -0.00859
 10 Cu   -0.00678    0.00274   -0.00124
 11 Cu   -0.00353    0.00035    0.01536
 12 Cu    0.00174    0.00276   -0.00248
 13 Cu   -0.00085   -0.01472   -0.00111
 14 Cu    0.00661    0.00125    0.00053
 15 Cu    0.00024   -0.00644   -0.00758
 16 Cu   -0.00459    0.00477   -0.00223
 17 Cu   -0.00308   -0.00109   -0.00619
 18 Cu    0.00352   -0.00121    0.00331
 19 Cu   -0.00993   -0.00771    0.00425
 20 Cu    0.00173   -0.00073   -0.00425
 21 Cu   -0.00007   -0.01067    0.00838
 22 Cu   -0.00835   -0.00908    0.00135
 23 Cu   -0.00072   -0.00295   -0.00494
 24 Cu   -0.00118    0.00860   -0.00544
 25 Cu   -0.00291   -0.00247   -0.00227
 26 Cu   -0.00732   -0.00342    0.00360
 27 Cu   -0.00670   -0.01161   -0.00037
 28 Cu    0.00053    0.00853   -0.00672
 29 Cu    0.01208    0.01293    0.00774
 30 Cu   -0.01456    0.00217    0.00856
 31 Cu    0.00631    0.00886   -0.00348
 32 Cu    0.01504   -0.00079    0.00936
 33 Cu    0.00577    0.00122   -0.00155
 34 Cu   -0.00020   -0.00921    0.00399
 35 Cu    0.00498    0.01068    0.00145
 36 Cu   -0.00214   -0.00423   -0.00265
 37 Cu   -0.00266    0.00626   -0.00206
 38 Cu   -0.00211    0.00263    0.00191
 39 Cu   -0.00221    0.00635    0.00945
 40 Cu    0.00498   -0.00567   -0.00145
 41 Cu    0.00765   -0.00175    0.00332
 42 Cu   -0.01249    0.01110   -0.00878
 43 Cu   -0.00263   -0.00347    0.00024
 44 Cu    0.00315   -0.00520    0.00465
 45 Cu    0.00136   -0.00437   -0.00002
 46 Cu    0.00123   -0.00650   -0.00084
 47 Cu   -0.00371    0.00525   -0.00251
 48 Cu   -0.00074   -0.00219    0.01070
 49 Cu    0.00702   -0.00113   -0.00173
 50 Cu   -0.00061    0.00640   -0.01227
 51 Cu    0.00806   -0.00260    0.01095
 52 Cu    0.00048   -0.00337   -0.00847
 53 Cu   -0.00435    0.00026   -0.00424
 54 Cl    0.00025    0.00794    0.01059
 55 Cl    0.01806   -0.01168   -0.00017
 56 Cl   -0.01335   -0.02175   -0.00513
 57 Cl    0.01980    0.00530    0.00990
 58 Cl   -0.00077    0.00784   -0.00012
 59 Cl   -0.00961    0.00285    0.00174
 60 Cl   -0.00581    0.00062    0.00738
 61 Cl    0.00368    0.02065    0.00965
 62 Cl    0.00946   -0.00238    0.01402
 63 Cl   -0.00600   -0.00379   -0.00509
 64 Cl   -0.00252   -0.00503    0.00398
 65 Cl   -0.00518    0.00929    0.00430