User:   thorkong@node029.cluster
Date:   Fri Oct 14 17:08:29 2022
Arch:   x86_64
Pid:    5301
Python: 3.10.5
gpaw:   /groups/kemi/thorkong/miniconda3/envs/gpaw22/lib/python3.10/site-packages/gpaw
_gpaw:  /groups/kemi/thorkong/miniconda3/envs/gpaw22/lib/python3.10/site-packages/
        _gpaw.cpython-310-x86_64-linux-gnu.so
ase:    /groups/kemi/thorkong/miniconda3/envs/gpaw22/lib/python3.10/site-packages/ase (version 3.22.1)
numpy:  /groups/kemi/thorkong/miniconda3/envs/gpaw22/lib/python3.10/site-packages/numpy (version 1.23.0)
scipy:  /groups/kemi/thorkong/miniconda3/envs/gpaw22/lib/python3.10/site-packages/scipy (version 1.8.1)
units:  Angstrom and eV
cores: 32
OpenMP: True
OMP_NUM_THREADS: 1

Input parameters:
  basis: dzp
  kpts: [4 4 1]
  mode: {ecut: 600.0,
         name: pw}
  xc: BEEF-vdW

System changes: positions, numbers, cell, pbc, initial_charges, initial_magmoms

Initialize ...

Cu-setup:
  name: Copper
  id: f1c4d45d90492f1bbfdcb091e8418fdf
  Z: 29.0
  valence: 11
  core: 18
  charge: 0.0
  file: /groups/kemi/thorkong/miniconda3/envs/gpaw22/share/gpaw/Cu.PBE.gz
  compensation charges: gauss, rc=0.33, lmax=2
  cutoffs: 2.06(filt), 2.43(core),
  valence states:
                energy  radius
    4s(1.00)    -4.609   1.164
    4p(0.00)    -0.698   1.164
    3d(10.00)    -5.039   1.058
    *s          22.603   1.164
    *p          26.513   1.164
    *d          22.172   1.058

  LCAO basis set for Cu:
    Name: dzp
    File: /groups/kemi/thorkong/miniconda3/envs/gpaw22/share/gpaw/Cu.dzp.basis.gz
    Number of radial functions: 5
    Number of spherical harmonics: 15
      l=0, rc=8.9688 Bohr: 4s-sz confined orbital
      l=2, rc=5.1719 Bohr: 3d-sz confined orbital
      l=0, rc=5.3281 Bohr: 4s-dz split-valence wave
      l=2, rc=3.1406 Bohr: 3d-dz split-valence wave
      l=1, rc=8.9688 Bohr: p-type Gaussian polarization

Cl-setup:
  name: Chlorine
  id: 726897f06f34e53cf8e33b5885a02604
  Z: 17.0
  valence: 7
  core: 10
  charge: 0.0
  file: /groups/kemi/thorkong/miniconda3/envs/gpaw22/share/gpaw/Cl.PBE.gz
  compensation charges: gauss, rc=0.25, lmax=2
  cutoffs: 1.40(filt), 1.49(core),
  valence states:
                energy  radius
    3s(2.00)   -20.689   0.794
    3p(5.00)    -8.594   0.794
    *s           6.523   0.794
    *p          18.617   0.794
    *d           0.000   0.794

  LCAO basis set for Cl:
    Name: dzp
    File: /groups/kemi/thorkong/miniconda3/envs/gpaw22/share/gpaw/Cl.dzp.basis.gz
    Number of radial functions: 5
    Number of spherical harmonics: 13
      l=0, rc=5.1719 Bohr: 3s-sz confined orbital
      l=1, rc=6.2656 Bohr: 3p-sz confined orbital
      l=0, rc=2.8281 Bohr: 3s-dz split-valence wave
      l=1, rc=3.5156 Bohr: 3p-dz split-valence wave
      l=2, rc=6.2656 Bohr: d-type Gaussian polarization

Reference energy: -3392203.925309

Spin-paired calculation

Convergence criteria:
 Maximum [total energy] change in last 3 cyles: 0.0005 eV / electron
 Maximum integral of absolute [dens]ity change: 0.0001 electrons / valence electron
 Maximum integral of absolute [eigenst]ate change: 4e-08 eV^2 / valence electron
 Maximum number of scf [iter]ations: 333
 (Square brackets indicate name in SCF output, whereas a 'c' in
 the SCF output indicates the quantity has converged.)

Symmetries present (total): 1

  ( 1  0  0)
  ( 0  1  0)
  ( 0  0  1)

16 k-points: 4 x 4 x 1 Monkhorst-Pack grid
8 k-points in the irreducible part of the Brillouin zone
       k-points in crystal coordinates                weights
   0:     0.12500000   -0.37500000    0.00000000          2/16
   1:     0.12500000   -0.12500000    0.00000000          2/16
   2:     0.12500000    0.12500000    0.00000000          2/16
   3:     0.12500000    0.37500000    0.00000000          2/16
   4:     0.37500000   -0.37500000    0.00000000          2/16
   5:     0.37500000   -0.12500000    0.00000000          2/16
   6:     0.37500000    0.12500000    0.00000000          2/16
   7:     0.37500000    0.37500000    0.00000000          2/16

Wave functions: Plane wave expansion
  Cutoff energy: 600.000 eV
  Number of coefficients (min, max): 66642, 66743
  Pulay-stress correction: 0.000000 eV/Ang^3 (de/decut=0.000000)
  Using FFTW library
  ScaLapack parameters: grid=2x2, blocksize=64
  Wavefunction extrapolation:
    Improved wavefunction reuse through dual PAW basis

Occupation numbers: Fermi-Dirac: width=0.1000 eV

Eigensolver
   Davidson(niter=2)

Densities:
  Coarse grid: 45*42*196 grid
  Fine grid: 90*84*392 grid
  Total Charge: 0.000000

Density mixing:
  Method: separate
  Backend: pulay
  Linear mixing parameter: 0.05
  Mixing with 5 old densities
  Damping of long wave oscillations: 50

Hamiltonian:
  XC and Coulomb potentials evaluated on a 90*84*392 grid
  Using the BEEF-vdW Exchange-Correlation functional
  External potential:
    NoExternalPotential

XC parameters: BEEF-vdW with 2 nearest neighbor stencil

Total number of cores used: 32
Parallelization over k-points: 8
Domain decomposition: 1 x 1 x 4
                      2 x 2 x 8 (xc only)

Number of atoms: 84
Number of atomic orbitals: 1236
Number of bands in calculation: 530
Number of valence electrons: 876
Bands to converge: occupied

... initialized

Initializing position-dependent things.

Density initialized from atomic densities
Creating initial wave functions:
  530 bands from LCAO basis set

 |   Cl     Cl    Cl     |
 |Cl  |  Cl  CuCCl   Cu  |
 |  CuCu   CCu   CuCu    |
 |    |  Cu    Cu    Cu  |
 |Cu  Cu    CuCu   Cu    |
 |  Cu|  CCu   CuCu  Cu  |
 |Cu  CuCu  CuCu   Cu    |
 |  Cu|  CuCuCuCuCu  Cu  |
 |Cu  | Cu    Cu         |
 |  CuCu CuCCu CuCuCuCu  |
 |Cu  |       Cu         |
 |  CuCu CCuCu CuCuCuCu  |
 |    |Cu    Cu    Cu    |
 |CuCuCuCuCuCuCuCCuCu  Cl|
 |    |Cl     Cl     Cl  |

Positions:
   0 Cu     2.893249   -0.009013   10.079935    ( 0.0000,  0.0000,  0.0000)
   1 Cu     1.591035    1.857611   11.262661    ( 0.0000,  0.0000,  0.0000)
   2 Cu     4.201834    1.841809   11.295676    ( 0.0000,  0.0000,  0.0000)
   3 Cu     0.277666   -0.009469   10.084997    ( 0.0000,  0.0000,  0.0000)
   4 Cu     0.277849    0.003618   12.626767    ( 0.0000,  0.0000,  0.0000)
   5 Cu     4.202668    1.862513   13.923708    ( 0.0000,  0.0000,  0.0000)
   6 Cu     1.586463    1.852775   13.921192    ( 0.0000,  0.0000,  0.0000)
   7 Cu     2.889400    0.003545   12.629227    ( 0.0000,  0.0000,  0.0000)
   8 Cu     2.895466   -0.000271   15.229461    ( 0.0000,  0.0000,  0.0000)
   9 Cu     1.588247    1.851385   16.545856    ( 0.0000,  0.0000,  0.0000)
  10 Cu     4.201591    1.852496   16.545727    ( 0.0000,  0.0000,  0.0000)
  11 Cu     0.277809    0.001734   15.236454    ( 0.0000,  0.0000,  0.0000)
  12 Cu     0.278211    0.000883   17.850829    ( 0.0000,  0.0000,  0.0000)
  13 Cu     4.204728    1.850775   19.171325    ( 0.0000,  0.0000,  0.0000)
  14 Cu     1.584458    1.852521   19.171085    ( 0.0000,  0.0000,  0.0000)
  15 Cu     2.894601    0.002325   17.849783    ( 0.0000,  0.0000,  0.0000)
  16 Cu     2.894236    0.012687   20.468701    ( 0.0000,  0.0000,  0.0000)
  17 Cu     1.584204    1.855644   21.820509    ( 0.0000,  0.0000,  0.0000)
  18 Cu     4.205662    1.855442   21.821840    ( 0.0000,  0.0000,  0.0000)
  19 Cu     0.277320    0.003097   20.469516    ( 0.0000,  0.0000,  0.0000)
  20 Cu     0.282256    0.008318   23.110120    ( 0.0000,  0.0000,  0.0000)
  21 Cu     4.232873    1.841925   24.430560    ( 0.0000,  0.0000,  0.0000)
  22 Cu     1.555398    1.844008   24.424642    ( 0.0000,  0.0000,  0.0000)
  23 Cu     2.895568   -0.008221   23.079835    ( 0.0000,  0.0000,  0.0000)
  24 Cu     2.864475    3.710782    9.962758    ( 0.0000,  0.0000,  0.0000)
  25 Cu     1.591976    5.541691   11.280182    ( 0.0000,  0.0000,  0.0000)
  26 Cu     4.202041    5.558211   11.310184    ( 0.0000,  0.0000,  0.0000)
  27 Cu     0.277822    3.707697   10.093271    ( 0.0000,  0.0000,  0.0000)
  28 Cu     0.277595    3.695861   12.630222    ( 0.0000,  0.0000,  0.0000)
  29 Cu     4.203472    5.539712   13.923294    ( 0.0000,  0.0000,  0.0000)
  30 Cu     1.585302    5.549330   13.921336    ( 0.0000,  0.0000,  0.0000)
  31 Cu     2.891979    3.696489   12.570906    ( 0.0000,  0.0000,  0.0000)
  32 Cu     2.893008    3.701406   15.220839    ( 0.0000,  0.0000,  0.0000)
  33 Cu     1.586757    5.551594   16.543688    ( 0.0000,  0.0000,  0.0000)
  34 Cu     4.203073    5.549574   16.542388    ( 0.0000,  0.0000,  0.0000)
  35 Cu     0.277652    3.699826   15.228727    ( 0.0000,  0.0000,  0.0000)
  36 Cu     0.278347    3.700871   17.844615    ( 0.0000,  0.0000,  0.0000)
  37 Cu     4.202226    5.552299   19.162667    ( 0.0000,  0.0000,  0.0000)
  38 Cu     1.587282    5.550511   19.162081    ( 0.0000,  0.0000,  0.0000)
  39 Cu     2.896094    3.699332   17.846167    ( 0.0000,  0.0000,  0.0000)
  40 Cu     2.895034    3.689744   20.468648    ( 0.0000,  0.0000,  0.0000)
  41 Cu     1.581145    5.547784   21.761122    ( 0.0000,  0.0000,  0.0000)
  42 Cu     4.208363    5.548067   21.763035    ( 0.0000,  0.0000,  0.0000)
  43 Cu     0.277513    3.699240   20.468279    ( 0.0000,  0.0000,  0.0000)
  44 Cu     0.282403    3.692379   23.126419    ( 0.0000,  0.0000,  0.0000)
  45 Cu     4.204347    5.557399   24.312269    ( 0.0000,  0.0000,  0.0000)
  46 Cu     1.585207    5.556171   24.307688    ( 0.0000,  0.0000,  0.0000)
  47 Cu     2.895682    3.707975   23.099015    ( 0.0000,  0.0000,  0.0000)
  48 Cu     6.815902    1.857266   11.266864    ( 0.0000,  0.0000,  0.0000)
  49 Cu     5.512292   -0.007627   10.084231    ( 0.0000,  0.0000,  0.0000)
  50 Cu     5.516568    0.003856   12.630858    ( 0.0000,  0.0000,  0.0000)
  51 Cu     6.820227    1.852728   13.924166    ( 0.0000,  0.0000,  0.0000)
  52 Cu     6.819210    1.851175   16.547654    ( 0.0000,  0.0000,  0.0000)
  53 Cu     5.510471    0.001413   15.229784    ( 0.0000,  0.0000,  0.0000)
  54 Cu     5.510806    0.000434   17.848219    ( 0.0000,  0.0000,  0.0000)
  55 Cu     6.820027    1.852260   19.163515    ( 0.0000,  0.0000,  0.0000)
  56 Cu     6.820094    1.855667   21.761999    ( 0.0000,  0.0000,  0.0000)
  57 Cu     5.512423    0.002682   20.470960    ( 0.0000,  0.0000,  0.0000)
  58 Cu     5.506106    0.008663   23.111884    ( 0.0000,  0.0000,  0.0000)
  59 Cu     6.819522    1.843288   24.299220    ( 0.0000,  0.0000,  0.0000)
[...]
  69 Cu     5.511227    3.699174   20.471342    ( 0.0000,  0.0000,  0.0000)
  70 Cu     5.505644    3.692016   23.130762    ( 0.0000,  0.0000,  0.0000)
  71 Cu     6.819911    5.559715   24.306944    ( 0.0000,  0.0000,  0.0000)
  72 Cl     2.887818    1.790073   26.301630    ( 0.0000,  0.0000,  0.0000)
  73 Cl     4.208862    3.653676    8.090793    ( 0.0000,  0.0000,  0.0000)
  74 Cl     5.387818    5.590073   26.301630    ( 0.0000,  0.0000,  0.0000)
  75 Cl     1.608862   -0.146324    8.090793    ( 0.0000,  0.0000,  0.0000)
  76 Cl     4.308862   -0.046324    8.090793    ( 0.0000,  0.0000,  0.0000)
  77 Cl     2.887818    5.490073   26.301630    ( 0.0000,  0.0000,  0.0000)
  78 Cl     7.208862    3.753676    8.090793    ( 0.0000,  0.0000,  0.0000)
  79 Cl     0.087818    1.790073   26.301630    ( 0.0000,  0.0000,  0.0000)
[...]
 |  CuCu  CuCu     Cu    |
 |    |CuCu  CuCuCuCuCu  |
 |    Cu    Cu     Cu    |
 |  Cu|CuCuCuCuCuCuCuCu  |
 |    Cu    Cu     Cu    |
 |  Cu|CuCuCuCuCuCuCuCu  |
 |  CuCu CuCCu CuCuCuCu  |
 |    |Cu    Cu    Cu    |
 |  CuCu CuCCu CuCuCuCu  |
 |    |Cu          Cu    |
 |  CuCu   CCu   CuCuCl  |
 |    |  Cl              |
 |    |CCu    Cl  Cl     |
 |    |    Cl            |

[...]

Density initialized from wave functions
 |   Cl     Cl     Cl    |
 |    | Cu               |
 |    |Cu Cl CuCuClCuClu |
 |  CuCu  CuCu     Cu    |
 |    |CuCu  CuCuCuCuCu  |
 |    Cu    Cu     Cu    |
 |  Cu|CuCuCuCuCuCuCuCu  |
 |    Cu    Cu     Cu    |
 |  Cu|CuCuCuCuCuCuCuCu  |
 |  CuCu CuCCu CuCuCuCu  |
 |    |Cu    Cu    Cu    |
 |  CuCu CuCCu CuCuCuCu  |
 |    |Cu          Cu    |
 |  CuCu   CCu   CuCuCl  |
 |    |  Cl              |
 |    |CCu    Cl  Cl     |
 |    |    Cl            |

[...]

Density initialized from wave functions
 |   Cl     Cl     Cl    |
 |    | Cu               |
 |    |Cu Cl CuCuClCuClu |
 |  CuCu  CuCu     Cu    |
 |    |CuCu  CuCuCuCuCu  |
 |    Cu    Cu     Cu    |
 |  Cu|CuCuCuCuCuCuCuCu  |
 |    Cu    Cu     Cu    |
 |  Cu|CuCuCuCuCuCuCuCu  |
 |  CuCu CuCCu CuCuCuCu  |
 |    |Cu    Cu    Cu    |
 |  CuCu CuCCu CuCuCuCu  |
 |    |Cu    Cu          |
 |  CuCu   CCu   CuCuCl  |
 |    |  Cl              |
 |    |Cl     Cu  Cl     |
 |    |    Cl            |

[...]

Density initialized from wave functions
 |   Cl     Cl     Cl    |
 |    |  Cu              |
 |Cl  |Cu Cl CuCuClCu Cu |
 |  CuCu  CuCu   CuCu    |
 |    |CuCu  CuCu  CuCu  |
 |    Cu    Cu     Cu    |
 |  Cu|CuCuCuCuCuCuCuCu  |
 |    Cu    Cu     Cu    |
 |  Cu|CuCuCuCuCuCuCuCu  |
 |  CuCu CuCCu CuCuCuCu  |
 |    |Cu    Cu          |
 |  CuCu CuCCu CuCuCuCu  |
 |    |Cu    Cu          |
 |  CuCu   CCuCu CuCuCl  |
 |    |  Cl              |
 |    |Cl     Cu  Cl     |
 |    |    Cl            |

[...]

Density initialized from wave functions
 |   Cl     Cl     Cl    |
 |    |  Cu              |
 |Cl  |Cu Cl CuCuClCu Cu |
 |  CuCu  CuCu   CuCu    |
 |    |CuCu  CuCu  CuCu  |
 |    Cu    Cu     Cu    |
 |  Cu|CuCuCuCuCuCuCuCu  |
 |    Cu    Cu     Cu    |
 |  Cu|CuCuCuCuCuCuCuCu  |
 |  CuCu CuCCu CuCuCuCu  |
 |    |Cu    Cu          |
 |  CuCu CuCCu CuCuCuCu  |
 |    |Cu    Cu          |
 |  CuCu   CCuCu CuCuCl  |
 |    |  Cl              |
 |    |Cl     Cu  Cl     |
 |    |    Cl            |

[...]

Density initialized from wave functions
 |   Cl     Cl     Cl    |
 |    |  Cu              |
 |Cl  |Cu Cl CuCuClCu Cu |
 |  CuCu  CuCu   CuCu    |
 |    |CuCu  CuCu  CuCu  |
 |    Cu    Cu     Cu    |
 |  Cu|CuCCu CuCuCuCuCu  |
 |    Cu    Cu     Cu    |
 |  Cu|CuCuCuCuCuCuCuCu  |
 |  CuCu CuCCu CuCuCuCu  |
 |    |Cu    Cu    Cu    |
 |  CuCu CuCCu CuCuCuCu  |
 |    |Cu    Cu          |
 |  CuCu   CCu   CuCuCl  |
 |    |  Cl              |
 |    |Cl     Cu  Cl     |
 |    |    Cl            |

[...]

Density initialized from wave functions
 |   Cl     Cl     Cl    |
 |    |  Cu              |
 |Cl  |Cu Cl CuCuClCu Cu |
 |  CuCu  CuCu   CuCu    |
 |    |CuCu  CuCu  CuCu  |
 |    Cu    Cu     Cu    |
 |  Cu|CuCCu CuCuCuCuCu  |
 |    Cu    Cu     Cu    |
 |  Cu|CuCuCuCuCuCuCuCu  |
 |  CuCu CuCCu CuCuCuCu  |
 |    |Cu    Cu    Cu    |
 |  CuCu CuCCu CuCuCuCu  |
 |    |      Cu          |
 |  CuCu   CCu   CuCuCl  |
 |    |  Cl              |
 |Cu  |Cl     Cu  Cl     |
 |    |    Cl            |

[...]

Density initialized from wave functions
 |   Cl     Cl     Cl    |
 |    |  Cu              |
 |Cl  |Cu Cl CuCuClCuCu  |
 |  CuCu  CuCu   CuCu    |
 |    |CuCu  CuCu  CuCu  |
 |    Cu    Cu     Cu    |
 |  Cu|CuCCu CuCuCuCuCu  |
 |    Cu    Cu     Cu    |
 |  Cu|CuCuCuCuCuCuCuCu  |
 |  CuCu CuCCu CuCuCuCu  |
 |    |Cu    Cu    Cu    |
 |  CuCu CuCCu CuCuCuCu  |
 |    |      Cu          |
 |  CuCu   CCu  CCuCuCl  |
 |    |  Cl              |
 |Cu  |Cl     Cu  Cl     |

[...]

Density initialized from wave functions
 |   Cl     Cl     Cl    |
 |    |  Cu              |
 |Cl  |Cu Cl CuCuClCuCu  |
 |  CuCu  CuCu   CuCu    |
 |    |CuCu  CuCu  CuCu  |
 |    Cu    Cu     Cu    |
 |  Cu|CuCCu CuCuCuCuCu  |
 |    Cu    Cu     Cu    |
 |  Cu|CuCuCuCuCuCuCuCu  |
 |  CuCu CuCCu CuCuCuCu  |
 |    |Cu    Cu    Cu    |
 |  CuCu CuCCu CuCuCuCu  |
 |    |      Cu          |
 |  CuCu ClCCu  CCuCuCl  |
 |Cu  |Cl     Cu  Cl     |

[...]

Density initialized from wave functions
 |   Cl     Cl     Cl    |
 |    |  Cu              |
 |Cl  |Cu Cl CuCuClCuCu  |
 |  CuCu  CuCu     Cu    |
 |    |CuCu  CuCuCuCuCu  |
 |    Cu    Cu     Cu    |
 |  Cu|CuCCu CuCuCuCuCu  |
 |    Cu    Cu     Cu    |
 |  Cu|CuCuCuCuCuCuCuCu  |
 |  CuCu CuCCu CuCuCuCu  |
 |    |Cu    Cu    Cu    |
 |  CuCu CuCCu CuCuCuCu  |
 |    |      Cu          |
 |  CuCu ClCCu  CCuCuCl  |
 |Cu  |Cl     Cu  Cl     |

[...]

Density initialized from wave functions
 |   Cl     Cl     Cl    |
 |    |  Cu              |
 |Cl  |Cu Cl CuCuClCu Cu |
 |  CuCu  CuCu     Cu    |
 |    |CuCu  CuCuCuCuCu  |
 |    Cu    Cu     Cu    |
 |  Cu|CuCCu CuCuCuCuCu  |
 |    Cu    Cu     Cu    |
 |  Cu|CuCuCuCuCuCuCuCu  |
 |  CuCu CuCCu CuCuCuCu  |
 |    |Cu    Cu    Cu    |
 |  CuCu CuCCu CuCuCuCu  |
 |    |Cu    Cu          |
 |  CuCu ClCCu  CCuCuCl  |
 |    |Cl     Cu  Cl     |

[...]

Density initialized from wave functions
 |   Cl     Cl     Cl    |
 |    |  Cu              |
 |Cl  |Cu Cl CuCuClCu Cu |
 |  CuCu  CuCu     Cu    |
 |    |CuCu  CuCuCuCuCu  |
 |    Cu    Cu     Cu    |
 |  Cu|CuCCu CuCuCuCuCu  |
 |    Cu    Cu     Cu    |
 |  Cu|CuCuCuCuCuCuCuCu  |
 |  CuCu CuCCu CuCuCuCu  |
 |    |Cu    Cu    Cu    |
 |  CuCu CuCCu CuCuCuCu  |
 |    |Cu    Cu          |
 |  CuCu ClCCu   CuCuCl  |
 |    |Cl     Cu  Cl     |
 |    |    Cl            |

[...]

System changes: positions

Initializing position-dependent things.

Density initialized from wave functions
 |   Cl     Cl     Cl    |
 |    |  Cu              |
 |Cl  |Cu Cl CuCuClCu Cu |
 |  CuCu  CuCu     Cu    |
 |    |CuCu  CuCuCuCuCu  |
 |    Cu    Cu     Cu    |
 |  Cu|CuCCu CuCuCuCuCu  |
 |    Cu    Cu     Cu    |
 |  Cu|CuCuCuCuCuCuCuCu  |
 |  CuCu CuCCu CuCuCuCu  |
 |    |Cu    Cu    Cu    |
 |  CuCu CuCCu CuCuCuCu  |
 |    |Cu    Cu          |
 |  CuCu ClCCu  CCuCuCl  |
 |    |Cl     Cu  Cl     |

Positions:
   0 Cu     2.969776   -0.007900    9.903801    ( 0.0000,  0.0000,  0.0000)
   1 Cu     1.603416    1.841739   11.323153    ( 0.0000,  0.0000,  0.0000)
   2 Cu     4.209038    1.841929   11.319806    ( 0.0000,  0.0000,  0.0000)
   3 Cu     0.270544   -0.001860    9.985763    ( 0.0000,  0.0000,  0.0000)
   4 Cu     0.284338   -0.012161   12.589157    ( 0.0000,  0.0000,  0.0000)
   5 Cu     4.209116    1.830983   13.915134    ( 0.0000,  0.0000,  0.0000)
   6 Cu     1.596095    1.832876   13.910510    ( 0.0000,  0.0000,  0.0000)
   7 Cu     2.905130   -0.013329   12.568361    ( 0.0000,  0.0000,  0.0000)
   8 Cu     2.904012   -0.025756   15.209397    ( 0.0000,  0.0000,  0.0000)
   9 Cu     1.598694    1.817561   16.540734    ( 0.0000,  0.0000,  0.0000)
  10 Cu     4.214018    1.817015   16.524616    ( 0.0000,  0.0000,  0.0000)
  11 Cu     0.286352   -0.024310   15.217649    ( 0.0000,  0.0000,  0.0000)
  12 Cu     0.295252   -0.042026   17.845071    ( 0.0000,  0.0000,  0.0000)
  13 Cu     4.211605    1.798430   19.140435    ( 0.0000,  0.0000,  0.0000)
  14 Cu     1.602601    1.796567   19.187276    ( 0.0000,  0.0000,  0.0000)
  15 Cu     2.906317   -0.042479   17.837345    ( 0.0000,  0.0000,  0.0000)
  16 Cu     2.901839   -0.063952   20.463970    ( 0.0000,  0.0000,  0.0000)
  17 Cu     1.603425    1.775629   21.867776    ( 0.0000,  0.0000,  0.0000)
  18 Cu     4.204421    1.779090   21.757161    ( 0.0000,  0.0000,  0.0000)
  19 Cu     0.301896   -0.063189   20.470971    ( 0.0000,  0.0000,  0.0000)
  20 Cu     0.336705   -0.081226   23.084196    ( 0.0000,  0.0000,  0.0000)
  21 Cu     4.103442    1.762586   24.350381    ( 0.0000,  0.0000,  0.0000)
  22 Cu     1.605566    1.735165   24.724459    ( 0.0000,  0.0000,  0.0000)
  23 Cu     2.870142   -0.082723   23.079300    ( 0.0000,  0.0000,  0.0000)
  24 Cu     2.994356    3.686284    9.903809    ( 0.0000,  0.0000,  0.0000)
  25 Cu     1.603107    5.544048   11.318009    ( 0.0000,  0.0000,  0.0000)
  26 Cu     4.209035    5.544834   11.315926    ( 0.0000,  0.0000,  0.0000)
  27 Cu     0.282952    3.696111    9.987060    ( 0.0000,  0.0000,  0.0000)
  28 Cu     0.282716    3.690992   12.590903    ( 0.0000,  0.0000,  0.0000)
  29 Cu     4.209480    5.532999   13.915059    ( 0.0000,  0.0000,  0.0000)
  30 Cu     1.594694    5.534680   13.908509    ( 0.0000,  0.0000,  0.0000)
  31 Cu     2.905244    3.690770   12.568328    ( 0.0000,  0.0000,  0.0000)
  32 Cu     2.904330    3.677283   15.207880    ( 0.0000,  0.0000,  0.0000)
  33 Cu     1.597514    5.518480   16.539678    ( 0.0000,  0.0000,  0.0000)
  34 Cu     4.214996    5.518912   16.524832    ( 0.0000,  0.0000,  0.0000)
  35 Cu     0.286967    3.675886   15.218016    ( 0.0000,  0.0000,  0.0000)
  36 Cu     0.295435    3.657998   17.844635    ( 0.0000,  0.0000,  0.0000)
  37 Cu     4.211775    5.500317   19.139524    ( 0.0000,  0.0000,  0.0000)
  38 Cu     1.601486    5.496917   19.186202    ( 0.0000,  0.0000,  0.0000)
  39 Cu     2.906885    3.659550   17.836731    ( 0.0000,  0.0000,  0.0000)
  40 Cu     2.902545    3.638328   20.464858    ( 0.0000,  0.0000,  0.0000)
  41 Cu     1.601275    5.475911   21.865591    ( 0.0000,  0.0000,  0.0000)
  42 Cu     4.203980    5.480856   21.757225    ( 0.0000,  0.0000,  0.0000)
  43 Cu     0.301434    3.637109   20.470215    ( 0.0000,  0.0000,  0.0000)
  44 Cu     0.334848    3.620365   23.083114    ( 0.0000,  0.0000,  0.0000)
  45 Cu     4.097845    5.466281   24.356018    ( 0.0000,  0.0000,  0.0000)
  46 Cu     1.597106    5.443307   24.728061    ( 0.0000,  0.0000,  0.0000)
  47 Cu     2.870876    3.622163   23.080972    ( 0.0000,  0.0000,  0.0000)
  48 Cu     6.811253    1.845071   11.310635    ( 0.0000,  0.0000,  0.0000)
  49 Cu     5.425066    0.005561    9.891464    ( 0.0000,  0.0000,  0.0000)
  50 Cu     5.513208   -0.011242   12.561819    ( 0.0000,  0.0000,  0.0000)
  51 Cu     6.825549    1.832604   13.893420    ( 0.0000,  0.0000,  0.0000)
  52 Cu     6.834184    1.817779   16.514191    ( 0.0000,  0.0000,  0.0000)
  53 Cu     5.521623   -0.025344   15.199866    ( 0.0000,  0.0000,  0.0000)
  54 Cu     5.527705   -0.041271   17.823038    ( 0.0000,  0.0000,  0.0000)
  55 Cu     6.842966    1.798753   19.136005    ( 0.0000,  0.0000,  0.0000)
  56 Cu     6.849849    1.778838   21.754016    ( 0.0000,  0.0000,  0.0000)
  57 Cu     5.526568   -0.060575   20.427036    ( 0.0000,  0.0000,  0.0000)
  58 Cu     5.527611   -0.075268   22.966519    ( 0.0000,  0.0000,  0.0000)
  59 Cu     6.953824    1.762286   24.347880    ( 0.0000,  0.0000,  0.0000)
[...]
  69 Cu     5.526881    3.641425   20.425332    ( 0.0000,  0.0000,  0.0000)
  70 Cu     5.527475    3.627123   22.964302    ( 0.0000,  0.0000,  0.0000)
  71 Cu     6.949976    5.466330   24.350698    ( 0.0000,  0.0000,  0.0000)
  72 Cl     3.161930    1.693794   26.429894    ( 0.0000,  0.0000,  0.0000)
  73 Cl     4.214695    3.700048    7.898950    ( 0.0000,  0.0000,  0.0000)
  74 Cl     5.522610    7.266681   25.306181    ( 0.0000,  0.0000,  0.0000)
  75 Cl     1.775890   -1.887328    8.830925    ( 0.0000,  0.0000,  0.0000)
  76 Cl     4.186262   -0.000936    7.901277    ( 0.0000,  0.0000,  0.0000)
  77 Cl     3.152192    5.387650   26.432720    ( 0.0000,  0.0000,  0.0000)
  78 Cl     6.650206    5.585892    8.799829    ( 0.0000,  0.0000,  0.0000)
  79 Cl     0.047876    1.685194   26.426257    ( 0.0000,  0.0000,  0.0000)
  80 Cl     5.527284    3.566641   25.303719    ( 0.0000,  0.0000,  0.0000)
  81 Cl     1.768440    1.840882    8.827199    ( 0.0000,  0.0000,  0.0000)
  82 Cl     6.644673    1.857383    8.804906    ( 0.0000,  0.0000,  0.0000)
  83 Cl     0.038525    5.392406   26.430440    ( 0.0000,  0.0000,  0.0000)

Unit cell:
           periodic     x           y           z      points  spacing
  1. axis:    yes    7.851007    0.000000    0.000000    45     0.1745
  2. axis:    yes    0.000000    7.402000    0.000000    42     0.1762
  3. axis:    yes    0.000000    0.000000   34.393512   196     0.1755

  Lengths:   7.851007   7.402000  34.393512
  Angles:   90.000000  90.000000  90.000000

Effective grid spacing dv^(1/3) = 0.1754

     iter     time        total  log10-change:
                         energy  eigst   dens
iter:   1 20:36:23 -5892.366650  -4.20
iter:   2 20:38:01 -5892.735443  -3.63  -2.93
iter:   3 20:39:23 -5892.323010c -4.15  -2.52
iter:   4 20:41:07 -5892.310247c -5.10  -3.41
iter:   5 20:42:27 -5892.306649c -5.73  -3.75
iter:   6 20:43:58 -5892.305636c -5.93  -4.06c
iter:   7 20:45:21 -5892.305970c -6.77  -4.18c
iter:   8 20:47:04 -5892.306192c -7.17  -4.39c
iter:   9 20:48:28 -5892.306358c -7.36  -4.48c
iter:  10 20:49:56 -5892.306054c -7.35  -4.61c
iter:  11 20:51:34 -5892.306393c -7.88c -4.81c

Converged after 11 iterations.

Dipole moment: (-75.591031, 32.393477, -0.218772) |e|*Ang

Energy contributions relative to reference atoms: (reference = -3392203.925309)

Kinetic:       +652.722347
Potential:     -691.551412
External:        +0.000000
XC:            -5852.200599
Entropy (-ST):   -0.746428
Local:           -0.903515
Free energy:   -5892.679607
Extrapolated:  -5892.306393

Showing only first 2 kpts
 Kpt  Band  Eigenvalues  Occupancy
  0   436      0.48964    1.75684
  0   437      0.68179    1.02801
  0   438      0.88448    0.24461
  0   439      0.90784    0.19871

  1   436      0.38336    1.90873
  1   437      0.39459    1.89844
  1   438      0.51213    1.70458
  1   439      0.51432    1.69901

Fermi level: 0.68740

No gap

Forces in eV/Ang:
  0 Cu    0.01232   -0.01125   -0.00781
  1 Cu    0.00315   -0.00900   -0.00182
  2 Cu    0.00069    0.00066   -0.01128
  3 Cu    0.00509   -0.01047   -0.00264
  4 Cu   -0.00535   -0.00449    0.00838
  5 Cu    0.00168    0.00355   -0.00757
  6 Cu    0.00120   -0.00377   -0.00355
  7 Cu    0.00380   -0.00277   -0.00004
  8 Cu   -0.00078    0.00120   -0.00390
  9 Cu   -0.00208   -0.00486    0.00319
 10 Cu   -0.00125   -0.00166   -0.00482
 11 Cu    0.00284   -0.00567    0.00413
 12 Cu   -0.00063   -0.00383   -0.00656
 13 Cu    0.00160    0.00092   -0.00510
 14 Cu   -0.00357   -0.00161    0.00158
 15 Cu   -0.00051   -0.00181   -0.00099
 16 Cu    0.00419    0.00550    0.00146
 17 Cu   -0.00489    0.00663    0.01212
 18 Cu   -0.00044    0.00397   -0.00599
 19 Cu   -0.00154    0.00336   -0.00772
 20 Cu    0.00075    0.00499   -0.00513
 21 Cu    0.00244    0.00748   -0.00236
 22 Cu   -0.00730    0.01271    0.01270
 23 Cu   -0.00446    0.01194   -0.00062
 24 Cu    0.00845   -0.00782   -0.00493
 25 Cu    0.00237   -0.00538    0.00580
 26 Cu    0.00045   -0.00695   -0.00853
 27 Cu    0.00063   -0.00940   -0.00295
 28 Cu   -0.00021   -0.00757    0.00276
 29 Cu    0.00042   -0.00040   -0.00991
 30 Cu    0.00536   -0.00831    0.00007
 31 Cu   -0.00035   -0.01035   -0.00160
 32 Cu   -0.00106   -0.00477    0.00381
 33 Cu    0.00126   -0.00367    0.00582
 34 Cu   -0.00376   -0.00567   -0.00612
 35 Cu    0.00023   -0.00102    0.00117
 36 Cu   -0.00230   -0.00024   -0.00377
 37 Cu    0.00152   -0.00186   -0.00194
 38 Cu   -0.00063   -0.00077    0.00297
 39 Cu   -0.00165   -0.00520    0.00117
 40 Cu    0.00353    0.00097   -0.00090
 41 Cu    0.00075    0.00471    0.01448
 42 Cu    0.00072    0.00179   -0.00172
 43 Cu   -0.00179    0.00309   -0.00289
 44 Cu    0.00854    0.00953    0.00029
 45 Cu    0.00756   -0.00058   -0.00878
 46 Cu    0.00811    0.00495    0.00918
 47 Cu   -0.01092    0.00291   -0.00039
 48 Cu   -0.00526   -0.00503   -0.00772
 49 Cu   -0.00006   -0.01278   -0.00310
 50 Cu    0.00322   -0.00409   -0.00268
 51 Cu    0.00014   -0.00169   -0.00525
 52 Cu   -0.00011   -0.00316    0.00108
 53 Cu   -0.00018   -0.00081    0.00240
 54 Cu   -0.00383   -0.00333   -0.00408
 55 Cu   -0.00232   -0.00064   -0.00092
 56 Cu    0.00316    0.00438   -0.00190
 57 Cu    0.00271    0.00146   -0.00233
 58 Cu   -0.00169    0.00558   -0.01044
 59 Cu    0.00068    0.00907    0.01058
[...]
 69 Cu    0.00137   -0.00143    0.00396
 70 Cu   -0.00267    0.00347   -0.00299
 71 Cu    0.00009   -0.00150   -0.00413
 72 Cl   -0.01116    0.01124    0.01062
 73 Cl    0.00804   -0.00164    0.01607
 74 Cl    0.00158    0.01331    0.01134
 75 Cl   -0.01052    0.01846    0.01092
 76 Cl    0.00567    0.00039    0.01347
 77 Cl    0.00282    0.01713    0.00490
 78 Cl   -0.01370   -0.01344    0.01478
 79 Cl   -0.00798    0.01714   -0.00919
 80 Cl    0.00649    0.01046    0.00909
 81 Cl    0.00384    0.01237    0.00671
 82 Cl   -0.01253   -0.00765    0.00631
 83 Cl    0.00705    0.01300   -0.00007