User:   thorkong@node027.cluster
Date:   Mon Oct 17 13:19:31 2022
Arch:   x86_64
Pid:    38360
Python: 3.10.5
gpaw:   /groups/kemi/thorkong/miniconda3/envs/gpaw22/lib/python3.10/site-packages/gpaw
_gpaw:  /groups/kemi/thorkong/miniconda3/envs/gpaw22/lib/python3.10/site-packages/
        _gpaw.cpython-310-x86_64-linux-gnu.so
ase:    /groups/kemi/thorkong/miniconda3/envs/gpaw22/lib/python3.10/site-packages/ase (version 3.22.1)
numpy:  /groups/kemi/thorkong/miniconda3/envs/gpaw22/lib/python3.10/site-packages/numpy (version 1.23.0)
scipy:  /groups/kemi/thorkong/miniconda3/envs/gpaw22/lib/python3.10/site-packages/scipy (version 1.8.1)
units:  Angstrom and eV
cores: 32
OpenMP: True
OMP_NUM_THREADS: 1

Input parameters:
  basis: dzp
  kpts: [4 4 1]
  mode: {ecut: 600.0,
         name: pw}
  xc: BEEF-vdW

System changes: positions, numbers, cell, pbc, initial_charges, initial_magmoms

Initialize ...

Cu-setup:
  name: Copper
  id: f1c4d45d90492f1bbfdcb091e8418fdf
  Z: 29.0
  valence: 11
  core: 18
  charge: 0.0
  file: /groups/kemi/thorkong/miniconda3/envs/gpaw22/share/gpaw/Cu.PBE.gz
  compensation charges: gauss, rc=0.33, lmax=2
  cutoffs: 2.06(filt), 2.43(core),
  valence states:
                energy  radius
    4s(1.00)    -4.609   1.164
    4p(0.00)    -0.698   1.164
    3d(10.00)    -5.039   1.058
    *s          22.603   1.164
    *p          26.513   1.164
    *d          22.172   1.058

  LCAO basis set for Cu:
    Name: dzp
    File: /groups/kemi/thorkong/miniconda3/envs/gpaw22/share/gpaw/Cu.dzp.basis.gz
    Number of radial functions: 5
    Number of spherical harmonics: 15
      l=0, rc=8.9688 Bohr: 4s-sz confined orbital
      l=2, rc=5.1719 Bohr: 3d-sz confined orbital
      l=0, rc=5.3281 Bohr: 4s-dz split-valence wave
      l=2, rc=3.1406 Bohr: 3d-dz split-valence wave
      l=1, rc=8.9688 Bohr: p-type Gaussian polarization

Cl-setup:
  name: Chlorine
  id: 726897f06f34e53cf8e33b5885a02604
  Z: 17.0
  valence: 7
  core: 10
  charge: 0.0
  file: /groups/kemi/thorkong/miniconda3/envs/gpaw22/share/gpaw/Cl.PBE.gz
  compensation charges: gauss, rc=0.25, lmax=2
  cutoffs: 1.40(filt), 1.49(core),
  valence states:
                energy  radius
    3s(2.00)   -20.689   0.794
    3p(5.00)    -8.594   0.794
    *s           6.523   0.794
    *p          18.617   0.794
    *d           0.000   0.794

  LCAO basis set for Cl:
    Name: dzp
    File: /groups/kemi/thorkong/miniconda3/envs/gpaw22/share/gpaw/Cl.dzp.basis.gz
    Number of radial functions: 5
    Number of spherical harmonics: 13
      l=0, rc=5.1719 Bohr: 3s-sz confined orbital
      l=1, rc=6.2656 Bohr: 3p-sz confined orbital
      l=0, rc=2.8281 Bohr: 3s-dz split-valence wave
      l=1, rc=3.5156 Bohr: 3p-dz split-valence wave
      l=2, rc=6.2656 Bohr: d-type Gaussian polarization

Reference energy: -2581817.792169

Spin-paired calculation

Convergence criteria:
 Maximum [total energy] change in last 3 cyles: 0.0005 eV / electron
 Maximum integral of absolute [dens]ity change: 0.0001 electrons / valence electron
 Maximum integral of absolute [eigenst]ate change: 4e-08 eV^2 / valence electron
 Maximum number of scf [iter]ations: 333
 (Square brackets indicate name in SCF output, whereas a 'c' in
 the SCF output indicates the quantity has converged.)

Symmetries present (total): 1

  ( 1  0  0)
  ( 0  1  0)
  ( 0  0  1)

16 k-points: 4 x 4 x 1 Monkhorst-Pack grid
8 k-points in the irreducible part of the Brillouin zone
       k-points in crystal coordinates                weights
   0:     0.12500000   -0.37500000    0.00000000          2/16
   1:     0.12500000   -0.12500000    0.00000000          2/16
   2:     0.12500000    0.12500000    0.00000000          2/16
   3:     0.12500000    0.37500000    0.00000000          2/16
   4:     0.37500000   -0.37500000    0.00000000          2/16
   5:     0.37500000   -0.12500000    0.00000000          2/16
   6:     0.37500000    0.12500000    0.00000000          2/16
   7:     0.37500000    0.37500000    0.00000000          2/16

Wave functions: Plane wave expansion
  Cutoff energy: 600.000 eV
  Number of coefficients (min, max): 54614, 54705
  Pulay-stress correction: 0.000000 eV/Ang^3 (de/decut=0.000000)
  Using FFTW library
  ScaLapack parameters: grid=2x2, blocksize=64
  Wavefunction extrapolation:
    Improved wavefunction reuse through dual PAW basis

Occupation numbers: Fermi-Dirac: width=0.1000 eV

Eigensolver
   Davidson(niter=2)

Densities:
  Coarse grid: 45*45*175 grid
  Fine grid: 90*90*350 grid
  Total Charge: 0.000000

Density mixing:
  Method: separate
  Backend: pulay
  Linear mixing parameter: 0.05
  Mixing with 5 old densities
  Damping of long wave oscillations: 50

Hamiltonian:
  XC and Coulomb potentials evaluated on a 90*90*350 grid
  Using the BEEF-vdW Exchange-Correlation functional
  External potential:
    NoExternalPotential

XC parameters: BEEF-vdW with 2 nearest neighbor stencil

Total number of cores used: 32
Parallelization over k-points: 8
Domain decomposition: 1 x 1 x 4
                      2 x 2 x 8 (xc only)

Number of atoms: 66
Number of atomic orbitals: 966
Number of bands in calculation: 411
Number of valence electrons: 678
Bands to converge: occupied

... initialized

Initializing position-dependent things.

Density initialized from atomic densities
Creating initial wave functions:
  411 bands from LCAO basis set

                     Cl            Cl

                 Cl    Cl
            Cl          CCl   Cu     Cu
                   Cu     Cu    Cu
               Cu    Cu     Cu
                    Cu     Cu    Cu
                Cu    Cu    Cu
           Cu    Cu     Cu
                Cu     Cu    Cu
            Cu    Cu     Cu
       Cu     Cu        Cu    Cu     Cu
                   CCu    Cu    Cu
               Cu    Cu     Cu
                    Cu     Cu    Cu
                Cu    Cu    Cu
           Cu    Cu     Cu
                Cu     Cu    Cu
            Cu    Cu     Cu
       Cu     Cu   CCu          Cl
                     Cl     Cl

[...]

Positions:
   0 Cu     2.884162   -0.011729   10.033678    ( 0.0000,  0.0000,  0.0000)
   1 Cu     4.175487    2.207390    9.968025    ( 0.0000,  0.0000,  0.0000)
   2 Cu     0.268779    0.005327   10.035957    ( 0.0000,  0.0000,  0.0000)
   3 Cu     1.563079    2.250160   10.040939    ( 0.0000,  0.0000,  0.0000)
   4 Cu     2.905835    3.013667   12.132731    ( 0.0000,  0.0000,  0.0000)
   5 Cu     1.587256    0.751197   12.155983    ( 0.0000,  0.0000,  0.0000)
   6 Cu     5.501600    3.021336   12.124235    ( 0.0000,  0.0000,  0.0000)
   7 Cu     4.203724    0.772150   12.120007    ( 0.0000,  0.0000,  0.0000)
   8 Cu     5.509809    1.511263   14.273560    ( 0.0000,  0.0000,  0.0000)
   9 Cu     6.817749    3.779201   14.272965    ( 0.0000,  0.0000,  0.0000)
  10 Cu     2.895657    1.507106   14.282845    ( 0.0000,  0.0000,  0.0000)
  11 Cu     4.204745    3.779097   14.275593    ( 0.0000,  0.0000,  0.0000)
  12 Cu     2.898323   -0.006205   16.439255    ( 0.0000,  0.0000,  0.0000)
  13 Cu     4.202828    2.263486   16.411249    ( 0.0000,  0.0000,  0.0000)
  14 Cu     0.271173   -0.001683   16.415015    ( 0.0000,  0.0000,  0.0000)
  15 Cu     1.580207    2.267720   16.418056    ( 0.0000,  0.0000,  0.0000)
  16 Cu     2.898773    3.019517   18.534881    ( 0.0000,  0.0000,  0.0000)
  17 Cu     1.574509    0.759578   18.535562    ( 0.0000,  0.0000,  0.0000)
  18 Cu     5.517461    3.017381   18.557838    ( 0.0000,  0.0000,  0.0000)
  19 Cu     4.218777    0.769327   18.565915    ( 0.0000,  0.0000,  0.0000)
  20 Cu     5.482458    1.472743   20.721328    ( 0.0000,  0.0000,  0.0000)
  21 Cu     6.840691    3.826186   20.718062    ( 0.0000,  0.0000,  0.0000)
  22 Cu     2.872766    1.512688   20.651496    ( 0.0000,  0.0000,  0.0000)
  23 Cu     4.179191    3.794081   20.647081    ( 0.0000,  0.0000,  0.0000)
  24 Cu     5.533098    4.559222    9.954112    ( 0.0000,  0.0000,  0.0000)
  25 Cu     2.867968    4.534051   10.029210    ( 0.0000,  0.0000,  0.0000)
  26 Cu     4.213127    5.276205   12.126541    ( 0.0000,  0.0000,  0.0000)
  27 Cu     6.799507    5.268601   12.115394    ( 0.0000,  0.0000,  0.0000)
  28 Cu     8.121886    6.047639   14.244202    ( 0.0000,  0.0000,  0.0000)
  29 Cu     5.516666    6.046671   14.278211    ( 0.0000,  0.0000,  0.0000)
  30 Cu     5.511110    4.531825   16.410270    ( 0.0000,  0.0000,  0.0000)
  31 Cu     2.888634    4.532926   16.406558    ( 0.0000,  0.0000,  0.0000)
  32 Cu     4.204789    5.283723   18.534523    ( 0.0000,  0.0000,  0.0000)
  33 Cu     6.814487    5.265823   18.565627    ( 0.0000,  0.0000,  0.0000)
  34 Cu     8.131354    6.045561   20.650058    ( 0.0000,  0.0000,  0.0000)
  35 Cu     5.501317    6.065983   20.648502    ( 0.0000,  0.0000,  0.0000)
  36 Cu     5.515639   -0.030915   10.037620    ( 0.0000,  0.0000,  0.0000)
  37 Cu     6.838300    2.241957   10.038361    ( 0.0000,  0.0000,  0.0000)
  38 Cu     8.121401    3.021170   12.150082    ( 0.0000,  0.0000,  0.0000)
  39 Cu     6.815400    0.755845   12.149679    ( 0.0000,  0.0000,  0.0000)
  40 Cu     8.132578    1.510559   14.278234    ( 0.0000,  0.0000,  0.0000)
  41 Cu     9.440817    3.775125   14.268637    ( 0.0000,  0.0000,  0.0000)
  42 Cu     5.504098   -0.004613   16.403245    ( 0.0000,  0.0000,  0.0000)
  43 Cu     6.816730    2.264183   16.407976    ( 0.0000,  0.0000,  0.0000)
  44 Cu     8.113114    3.026556   18.553628    ( 0.0000,  0.0000,  0.0000)
  45 Cu     6.806143    0.763216   18.553497    ( 0.0000,  0.0000,  0.0000)
  46 Cu     8.148557    1.500971   20.654047    ( 0.0000,  0.0000,  0.0000)
  47 Cu     9.453486    3.785452   20.645604    ( 0.0000,  0.0000,  0.0000)
  48 Cu     8.143342    4.522704   10.030314    ( 0.0000,  0.0000,  0.0000)
  49 Cu     9.444142    5.279553   12.148158    ( 0.0000,  0.0000,  0.0000)
  50 Cu    10.750397    6.043904   14.266863    ( 0.0000,  0.0000,  0.0000)
  51 Cu     8.125450    4.536072   16.403731    ( 0.0000,  0.0000,  0.0000)
  52 Cu     9.432612    5.289470   18.528114    ( 0.0000,  0.0000,  0.0000)
  53 Cu    10.748665    6.030225   20.646267    ( 0.0000,  0.0000,  0.0000)
  54 Cl     6.147134    2.664301   22.667231    ( 0.0000,  0.0000,  0.0000)
  55 Cl     4.853098    3.366848    8.014863    ( 0.0000,  0.0000,  0.0000)
  56 Cl    10.101076    4.907838   23.055936    ( 0.0000,  0.0000,  0.0000)
  57 Cl     0.915929    1.127744    7.628448    ( 0.0000,  0.0000,  0.0000)
  58 Cl     8.857645    5.743262    7.623330    ( 0.0000,  0.0000,  0.0000)
  59 Cl     2.077612    0.292715   23.096412    ( 0.0000,  0.0000,  0.0000)
  60 Cl     4.840254    4.930032   23.057792    ( 0.0000,  0.0000,  0.0000)
  61 Cl     6.176970    1.105521    7.627990    ( 0.0000,  0.0000,  0.0000)
  62 Cl     3.525825    5.890548    7.624209    ( 0.0000,  0.0000,  0.0000)
  63 Cl     7.377612    0.192715   23.096412    ( 0.0000,  0.0000,  0.0000)
  64 Cl     3.535671    2.617828   22.668468    ( 0.0000,  0.0000,  0.0000)
  65 Cl     7.796854    2.949642    7.999351    ( 0.0000,  0.0000,  0.0000)

Unit cell:
           periodic     x           y           z      points  spacing
  1. axis:    yes    7.851007    0.000000    0.000000    45     0.1511
[...]
iter:   8 02:28:03 -4523.703317c -5.83  -3.41
iter:   9 02:28:52 -4523.709711c -5.92  -3.59
iter:  10 02:29:52 -4523.704047c -6.39  -3.54
iter:  11 02:31:03 -4523.705366c -6.29  -3.72
iter:  12 02:32:01 -4523.705397c -6.75  -3.92
iter:  13 02:33:01 -4523.705775c -6.25  -3.73
iter:  14 02:33:57 -4523.704937c -6.66  -3.64
iter:  15 02:35:05 -4523.704810c -7.86c -4.49c

[...]

        Cu    Cu    CCu   Cu     Cu
               Cu    CCu    Cu    Cu
                           Cu
                Cu     Cu    Cu
           Cu    CCu    Cu
                       Cu     Cu
            Cu     Cul   Cu     Cl
                     Cu
        Cu    Cu     Cl      Cl
            Cl

[...]

     iter     time        total  log10-change:
                         energy  eigst   dens
iter:   1 02:36:43 -4523.721311  -3.15
iter:   2 02:37:35 -4523.895166  -4.00  -3.00
iter:   3 02:38:31 -4523.752998c -4.82  -2.51
iter:   4 02:39:23 -4523.724316c -5.50  -3.03
iter:   5 02:40:14 -4523.709061c -5.39  -3.13
iter:   6 02:41:05 -4523.718484c -5.55  -3.30
iter:   7 02:42:02 -4523.725106c -5.36  -3.18
iter:   8 02:43:08 -4523.711310c -5.54  -3.22
iter:   9 02:43:59 -4523.711767c -6.46  -3.71
iter:  10 02:44:50 -4523.711014c -5.68  -3.56
iter:  11 02:45:44 -4523.711339c -6.77  -3.81
iter:  12 02:46:51 -4523.711035c -7.08  -3.91
iter:  13 02:48:01 -4523.711778c -6.84  -4.16c
iter:  14 02:48:58 -4523.711220c -6.97  -4.27c
iter:  15 02:49:48 -4523.711100c -7.12  -3.95
iter:  16 02:50:49 -4523.711071c -7.34  -4.16c
iter:  17 02:51:48 -4523.711164c -7.39  -4.62c
iter:  18 02:52:43 -4523.711104c -8.61c -4.70c

[...]

                                 Cl
                  Cl    CuCl  Cu     Cu
              Cl   Cu     Cl
                     Cu     Cu  Cu
               Cu   Cu     Cu    Cu
                Cu    Cu    Cu

           Cu   CuCu   CCu   Cu

[...]

               Cu   CCu    CCu   Cu
               Cu     Cu
                             Cu
           Cu   CCu    CCu   Cu
                  Cu           Cl
            Cu     Cl    Cu
       Cu     Cu     Cu     Cl
                     Cl
            Cl

[...]

                                  Cl
                   Cl   CuCl   Cu    Cu

[...]

                Cu     Cu    Cu
           Cu     Cu    Cu
                 Cu     Cu    Cu
            Cu     Cu    Cu    Cu     Cu

        Cu    Cu    CCu   Cu     Cu
               Cu    CCu   CCu    Cu

                Cu     Cu    Cu
           Cu    CCu    Cu
                       Cu     Cu
            Cu     Cul   Cu     Cl
                     Cu
        Cu    Cu     Cl      Cl
            Cl

[...]

     iter     time        total  log10-change:
                         energy  eigst   dens
iter:   1 03:25:43 -4523.764793  -3.76
iter:   2 03:26:33 -4524.619066  -3.42  -2.64
iter:   3 03:27:37 -4524.065699  -3.66  -2.23
iter:   4 03:28:33 -4523.784565  -4.32  -2.52
iter:   5 03:29:32 -4523.749452c -5.10  -2.96
iter:   6 03:30:33 -4523.717623c -5.26  -3.14
iter:   7 03:31:32 -4523.724210c -6.39  -3.67
iter:   8 03:32:24 -4523.711330c -5.71  -3.51
iter:   9 03:33:15 -4523.713198c -6.82  -3.83
iter:  10 03:34:24 -4523.713309c -7.49c -3.89
iter:  11 03:35:25 -4523.714722c -7.01  -4.07c
iter:  12 03:36:31 -4523.713700c -6.77  -3.86
iter:  13 03:37:32 -4523.714329c -7.21  -3.98
iter:  14 03:38:44 -4523.714260c -7.24  -4.28c
iter:  15 03:40:00 -4523.714415c -8.06c -4.79c

[...]

                                 Cl
                  Cl    CuCl  Cu     Cu
              Cl   Cu     Cl
                     Cu     Cu  Cu
               Cu   Cu     Cu    Cu
                Cu    Cu    Cu

           Cu   CuCu   CCu   Cu

            Cu    Cu    CCu   Cu     Cu
       Cu     Cu   CCu    Cu    Cu

               Cu   CCu    CCu   Cu
               Cu     Cu
                             Cu
           Cu   CCu    CCu   Cu
                  Cu           Cl
            Cu     Cl    Cu
       Cu     Cu     Cu     Cl
                     Cl
            Cl

[...]

                                 Cl
                          Cl
                  Cl    Cu    Cu     Cu
              Cl   Cu     Cl    Cu
               Cu    Cu     Cu
                    Cu     Cu    Cu
                Cu    Cu     Cu
           Cu     Cu    Cu
                Cu     Cu    Cu
            Cu    Cu     Cu   Cu     Cu
       Cu     Cu    Cu  Cu
                   Cu     Cu    Cu
               Cu    Cu     Cu   Cu
                    Cu     Cu
               Cu     Cu     Cu
           Cu   CCu     Cu
                       Cu    Cu
            Cu    Cul    Cu     Cl
       Cu     Cu     Cu
                     Cl      Cl
            Cl

[...]

                                  Cl
                   Cl    CCl   Cu    Cu

[...]

     iter     time        total  log10-change:
                         energy  eigst   dens
iter:   1 04:09:45 -4523.717084  -4.09
iter:   2 04:10:35 -4523.816968  -4.59  -3.18
iter:   3 04:11:45 -4523.741044c -4.91  -2.71
iter:   4 04:12:35 -4523.723786c -5.89  -3.25
iter:   5 04:13:25 -4523.721030c -5.80  -3.63
iter:   6 04:14:14 -4523.717741c -5.63  -3.52
iter:   7 04:15:03 -4523.721626c -6.57  -3.41
iter:   8 04:15:52 -4523.720199c -6.42  -3.75
iter:   9 04:16:41 -4523.720225c -6.99  -4.18c
iter:  10 04:17:30 -4523.720186c -6.56  -3.98
iter:  11 04:18:19 -4523.720393c -7.58c -4.32c

[...]

     iter     time        total  log10-change:
                         energy  eigst   dens
iter:   1 04:19:39 -4523.733803  -3.79
iter:   2 04:20:29 -4523.724890  -4.77  -3.35
iter:   3 04:21:19 -4523.716446c -5.61  -2.92
iter:   4 04:22:18 -4523.721406c -6.31  -3.44
iter:   5 04:23:16 -4523.725696c -5.72  -3.54
iter:   6 04:24:12 -4523.725958c -5.79  -3.62
iter:   7 04:25:12 -4523.723140c -6.43  -3.55
iter:   8 04:26:09 -4523.720591c -6.31  -3.93
iter:   9 04:27:12 -4523.722224c -7.00  -4.05c
iter:  10 04:28:06 -4523.721985c -7.43c -3.87
iter:  11 04:28:56 -4523.722096c -6.98  -3.99
iter:  12 04:29:45 -4523.721946c -8.07c -4.41c

[...]

     iter     time        total  log10-change:
                         energy  eigst   dens
iter:   1 04:31:03 -4523.769517  -3.88
iter:   2 04:31:52 -4524.402755  -3.67  -2.74
iter:   3 04:32:41 -4523.906647  -3.96  -2.24
iter:   4 04:33:41 -4523.762413  -4.69  -2.66
iter:   5 04:34:34 -4523.741439c -5.34  -3.08
iter:   6 04:35:27 -4523.723393c -5.36  -3.30
iter:   7 04:36:33 -4523.724232c -6.45  -3.35
iter:   8 04:37:31 -4523.723331c -5.84  -3.72
iter:   9 04:38:29 -4523.725221c -6.23  -3.63
iter:  10 04:39:22 -4523.722974c -7.15  -3.96
iter:  11 04:40:14 -4523.722816c -7.31  -4.12c
iter:  12 04:41:10 -4523.721861c -6.76  -4.04c
iter:  13 04:41:59 -4523.722913c -7.69c -4.32c

[...]

System changes: positions

Initializing position-dependent things.

Density initialized from wave functions

[...]

                                  Cl
                   Cl    CCl   Cu    Cu

              Cl    Cu    CCl    Cu
               Cu    CCu   CCu    Cu

                Cu     Cu    Cu
           Cu    CCu    Cu    Cu

            Cu     Cu    Cu    Cu     Cu
        Cu    Cu    CCu   Cu     Cu

               Cu    CCu   CCu    Cu
                Cu     Cu    Cu

           Cu    CCu   CCu    Cu
            Cu     Cu    Cu     Cl
                    Cl
        Cu    Cu     Cu      Cl

[...]

                       Cl

Positions:
   0 Cu     2.848623    0.001589    9.992178    ( 0.0000,  0.0000,  0.0000)
   1 Cu     4.052312    2.280053   10.156832    ( 0.0000,  0.0000,  0.0000)
   2 Cu     0.230067    0.066632    9.917624    ( 0.0000,  0.0000,  0.0000)
   3 Cu     1.507203    2.330868    9.892789    ( 0.0000,  0.0000,  0.0000)
   4 Cu     2.793005    3.065481   12.161519    ( 0.0000,  0.0000,  0.0000)
   5 Cu     1.528204    0.811597   12.075316    ( 0.0000,  0.0000,  0.0000)
   6 Cu     5.457464    3.080169   12.112756    ( 0.0000,  0.0000,  0.0000)
   7 Cu     4.123674    0.785889   12.206816    ( 0.0000,  0.0000,  0.0000)
   8 Cu     5.455609    1.556372   14.275486    ( 0.0000,  0.0000,  0.0000)
   9 Cu     6.762740    3.819022   14.243015    ( 0.0000,  0.0000,  0.0000)
  10 Cu     2.819749    1.552696   14.288757    ( 0.0000,  0.0000,  0.0000)
  11 Cu     4.140752    3.824137   14.254448    ( 0.0000,  0.0000,  0.0000)
  12 Cu     2.818982    0.046486   16.456128    ( 0.0000,  0.0000,  0.0000)
  13 Cu     4.138250    2.291035   16.403824    ( 0.0000,  0.0000,  0.0000)
  14 Cu     0.210958    0.041534   16.450026    ( 0.0000,  0.0000,  0.0000)
  15 Cu     1.512878    2.291913   16.404687    ( 0.0000,  0.0000,  0.0000)
  16 Cu     2.829073    3.008079   18.515625    ( 0.0000,  0.0000,  0.0000)
  17 Cu     1.513281    0.798588   18.643184    ( 0.0000,  0.0000,  0.0000)
  18 Cu     5.444098    3.042062   18.510244    ( 0.0000,  0.0000,  0.0000)
  19 Cu     4.158310    0.787827   18.613568    ( 0.0000,  0.0000,  0.0000)
  20 Cu     5.456112    1.552878   20.839695    ( 0.0000,  0.0000,  0.0000)
  21 Cu     6.735984    3.836463   20.555896    ( 0.0000,  0.0000,  0.0000)
  22 Cu     2.821810    1.481536   20.793787    ( 0.0000,  0.0000,  0.0000)
  23 Cu     4.132357    3.816426   20.587135    ( 0.0000,  0.0000,  0.0000)
  24 Cu     5.373644    4.543401    9.834242    ( 0.0000,  0.0000,  0.0000)
  25 Cu     2.763909    4.556626   10.104001    ( 0.0000,  0.0000,  0.0000)
  26 Cu     4.150308    5.349103   12.109503    ( 0.0000,  0.0000,  0.0000)
  27 Cu     6.726890    5.322545   12.080331    ( 0.0000,  0.0000,  0.0000)
  28 Cu     8.049699    6.081520   14.306714    ( 0.0000,  0.0000,  0.0000)
  29 Cu     5.449506    6.101153   14.259394    ( 0.0000,  0.0000,  0.0000)
  30 Cu     5.447440    4.572751   16.376607    ( 0.0000,  0.0000,  0.0000)
  31 Cu     2.831405    4.565112   16.409084    ( 0.0000,  0.0000,  0.0000)
  32 Cu     4.151540    5.314514   18.555992    ( 0.0000,  0.0000,  0.0000)
  33 Cu     6.739996    5.329858   18.549702    ( 0.0000,  0.0000,  0.0000)
  34 Cu     8.143260    6.023647   20.654777    ( 0.0000,  0.0000,  0.0000)
  35 Cu     5.439102    6.017162   20.758935    ( 0.0000,  0.0000,  0.0000)
  36 Cu     5.501869    0.088055   10.149251    ( 0.0000,  0.0000,  0.0000)
  37 Cu     6.716982    2.319968    9.907384    ( 0.0000,  0.0000,  0.0000)
  38 Cu     8.065352    3.068878   12.066945    ( 0.0000,  0.0000,  0.0000)
  39 Cu     6.784848    0.821803   12.120958    ( 0.0000,  0.0000,  0.0000)
  40 Cu     8.071405    1.556616   14.250356    ( 0.0000,  0.0000,  0.0000)
  41 Cu     9.361002    3.815660   14.287755    ( 0.0000,  0.0000,  0.0000)
  42 Cu     5.446502    0.037315   16.423130    ( 0.0000,  0.0000,  0.0000)
  43 Cu     6.754567    2.288986   16.403250    ( 0.0000,  0.0000,  0.0000)
  44 Cu     8.058184    3.019926   18.517774    ( 0.0000,  0.0000,  0.0000)
  45 Cu     6.734221    0.786541   18.629863    ( 0.0000,  0.0000,  0.0000)
  46 Cu     8.055794    1.560684   20.799379    ( 0.0000,  0.0000,  0.0000)
  47 Cu     9.372120    3.699690   20.543920    ( 0.0000,  0.0000,  0.0000)
  48 Cu     8.037331    4.608677    9.980373    ( 0.0000,  0.0000,  0.0000)
  49 Cu     9.352172    5.327239   12.192733    ( 0.0000,  0.0000,  0.0000)
  50 Cu    10.689396    6.093735   14.280963    ( 0.0000,  0.0000,  0.0000)
  51 Cu     8.053620    4.564571   16.421516    ( 0.0000,  0.0000,  0.0000)
  52 Cu     9.378495    5.317293   18.533331    ( 0.0000,  0.0000,  0.0000)
  53 Cu    10.648089    6.039829   20.692446    ( 0.0000,  0.0000,  0.0000)
  54 Cl     7.052567    2.891396   22.560192    ( 0.0000,  0.0000,  0.0000)
  55 Cl     5.025148    2.586714    8.170250    ( 0.0000,  0.0000,  0.0000)
  56 Cl     9.572330    4.779215   22.488153    ( 0.0000,  0.0000,  0.0000)
  57 Cl     1.876772    0.826958    8.089667    ( 0.0000,  0.0000,  0.0000)
  58 Cl     8.523727    6.242063    8.221873    ( 0.0000,  0.0000,  0.0000)
  59 Cl     3.039023   -0.359005   22.547077    ( 0.0000,  0.0000,  0.0000)
  60 Cl     4.806241    4.825346   24.934044    ( 0.0000,  0.0000,  0.0000)
  61 Cl     6.261821    0.952200    5.745632    ( 0.0000,  0.0000,  0.0000)
  62 Cl     3.682655    5.350999    8.173364    ( 0.0000,  0.0000,  0.0000)
  63 Cl     7.927906   -0.041928   22.545044    ( 0.0000,  0.0000,  0.0000)
  64 Cl     3.984471    2.597287   22.505034    ( 0.0000,  0.0000,  0.0000)
  65 Cl     8.007793    3.256852    8.098831    ( 0.0000,  0.0000,  0.0000)

Unit cell:
           periodic     x           y           z      points  spacing
  1. axis:    yes    7.851007    0.000000    0.000000    45     0.1511
  2. axis:    yes    3.925503    6.799171    0.000000    45     0.1511
  3. axis:    yes    0.000000    0.000000   30.683867   175     0.1753

  Lengths:   7.851007   7.851006  30.683867
  Angles:   90.000000  90.000000  60.000001

Effective grid spacing dv^(1/3) = 0.1666

     iter     time        total  log10-change:
                         energy  eigst   dens
iter:   1 04:43:17 -4523.726659  -3.97
iter:   2 04:44:06 -4523.744011  -4.84  -3.41
iter:   3 04:45:03 -4523.731510c -6.08  -2.94
iter:   4 04:45:53 -4523.720039c -5.83  -3.17
iter:   5 04:46:43 -4523.724587c -5.89  -3.59
iter:   6 04:47:32 -4523.731266c -5.64  -3.40
iter:   7 04:48:22 -4523.725345c -6.57  -3.64
iter:   8 04:49:12 -4523.723489c -6.88  -3.97
iter:   9 04:50:03 -4523.724615c -6.75  -4.11c
iter:  10 04:51:00 -4523.723613c -6.93  -3.95
iter:  11 04:51:50 -4523.723595c -7.78c -4.50c

Converged after 11 iterations.

Dipole moment: (-15.065815, 12.723351, 0.002276) |e|*Ang

Energy contributions relative to reference atoms: (reference = -2581817.792169)

Kinetic:       +524.110719
Potential:     -547.599607
External:        +0.000000
XC:            -4499.186758
Entropy (-ST):   -0.875154
Local:           -0.610372
Free energy:   -4524.161172
Extrapolated:  -4523.723595

Showing only first 2 kpts
 Kpt  Band  Eigenvalues  Occupancy
  0   337     -0.10455    1.41088
  0   338     -0.02048    1.01632
  0   339      0.10468    0.45622
  0   340      0.12195    0.39829

  1   337     -0.24036    1.80608
  1   338     -0.20326    1.73069
  1   339     -0.12481    1.49146
  1   340     -0.07325    1.27306

Fermi level: -0.01722

No gap

Forces in eV/Ang:
  0 Cu   -0.00348   -0.00579    0.00881
  1 Cu    0.00455   -0.00560   -0.01342
  2 Cu    0.00092   -0.00097    0.00077
  3 Cu   -0.00468   -0.00012   -0.01037
  4 Cu   -0.00595   -0.00288    0.00279
  5 Cu   -0.00216    0.00018    0.00135
  6 Cu    0.00174   -0.00304   -0.00107
  7 Cu   -0.00062   -0.00014   -0.00667
  8 Cu    0.00569   -0.00258   -0.00061
  9 Cu    0.00241   -0.00622    0.00325
 10 Cu    0.00438   -0.00489   -0.00241
 11 Cu   -0.00045   -0.00549    0.00123
 12 Cu    0.00619   -0.00191   -0.00259
 13 Cu   -0.00242    0.00148    0.00135
 14 Cu   -0.00284    0.00163   -0.00054
 15 Cu    0.00104   -0.00615   -0.00271
 16 Cu   -0.00149    0.00310    0.00196
 17 Cu    0.00417    0.00351    0.00217
 18 Cu   -0.00294    0.00773    0.00467
 19 Cu    0.00431    0.00413   -0.00134
 20 Cu    0.00601    0.00156   -0.00300
 21 Cu    0.00524   -0.00128    0.00925
 22 Cu   -0.00435   -0.00013   -0.00700
 23 Cu    0.00149    0.01382   -0.00646
 24 Cu    0.00749    0.00338   -0.00630
 25 Cu   -0.00125    0.00251    0.00079
 26 Cu    0.00658   -0.00375    0.00269
 27 Cu   -0.00019   -0.00256    0.00041
 28 Cu   -0.00043   -0.00012   -0.01452
 29 Cu   -0.00001   -0.00433   -0.00344
 30 Cu   -0.00351    0.00153   -0.00165
 31 Cu   -0.00191   -0.00335    0.00261
 32 Cu   -0.00412    0.00395    0.01080
 33 Cu    0.00072    0.00179    0.00145
 34 Cu   -0.00144    0.00499   -0.00637
 35 Cu    0.00526    0.00561    0.00248
 36 Cu    0.00948    0.01153    0.01096
 37 Cu   -0.00425    0.00299   -0.00274
 38 Cu   -0.00263   -0.00291   -0.00459
 39 Cu    0.00535    0.00016    0.00034
 40 Cu    0.00661    0.00242   -0.00336
 41 Cu    0.00265   -0.00093   -0.00269
 42 Cu    0.00022    0.00107   -0.00271
 43 Cu   -0.00134    0.00175    0.00424
 44 Cu   -0.00528    0.00541    0.00130
 45 Cu   -0.00810    0.00458    0.00192
 46 Cu   -0.00657   -0.00835   -0.00179
 47 Cu   -0.01063   -0.00255   -0.00518
 48 Cu    0.00290   -0.00242    0.00946
 49 Cu   -0.00063    0.00316   -0.00212
 50 Cu    0.00152   -0.00049   -0.00274
 51 Cu    0.00216   -0.00051   -0.00754
 52 Cu    0.00020    0.00033   -0.00075
 53 Cu   -0.00526    0.01219    0.00616
 54 Cl   -0.00288    0.00559   -0.01248
 55 Cl   -0.00663    0.00050    0.01090
 56 Cl   -0.00139   -0.00550    0.00033
 57 Cl   -0.00255   -0.00442    0.00644
 58 Cl    0.00191   -0.00550   -0.01419
 59 Cl   -0.00604   -0.00686    0.00078
 60 Cl    0.00405   -0.00090    0.01059
 61 Cl    0.01645   -0.02439   -0.00535
 62 Cl    0.00839   -0.00047   -0.00673
 63 Cl   -0.00627    0.01176    0.00872
 64 Cl    0.01082   -0.01613    0.01353
 65 Cl    0.00122   -0.00523    0.00682