User:   thorkong@node048.cluster
Date:   Tue Apr 12 21:27:22 2022
Arch:   x86_64
Pid:    38956
Python: 3.6.12
gpaw:   /software/kemi/gpaw/19.8.1/gpaw
_gpaw:  /software/kemi/gpaw/19.8.1/bin/gpaw-python
ase:    /software/kemi/ase/3.19.0/ase (version 3.19.0)
numpy:  /opt/rh/rh-python36/root/usr/lib64/python3.6/site-packages/numpy (version 1.13.1)
scipy:  /opt/rh/rh-python36/root/usr/lib64/python3.6/site-packages/scipy (version 0.19.1)
units:  Angstrom and eV
cores:  32

Input parameters:
  basis: dzp
  kpts: [4 4 1]
  mode: {ecut: 600.0,
         gammacentered: False,
         name: pw}
  xc: BEEF-vdW

System changes: positions, numbers, cell, pbc, initial_charges, initial_magmoms

Initialize ...

Cu-setup:
  name: Copper
  id: f1c4d45d90492f1bbfdcb091e8418fdf
  Z: 29
  valence: 11
  core: 18
  charge: 0.0
  file: /software/kemi/gpaw-setups/0.9.20000/Cu.PBE.gz
  compensation charges: gauss, rc=0.33, lmax=2
  cutoffs: 2.06(filt), 2.43(core),
  valence states:
                energy  radius
    4s(1.00)    -4.609   1.164
    4p(0.00)    -0.698   1.164
    3d(10.00)    -5.039   1.058
    *s          22.603   1.164
    *p          26.513   1.164
    *d          22.172   1.058

  LCAO basis set for Cu:
    Name: dzp
    File: /software/kemi/gpaw-setups/0.9.20000/Cu.dzp.basis.gz
    Number of radial functions: 5
    Number of spherical harmonics: 15
      l=0, rc=8.9688 Bohr: 4s-sz confined orbital
      l=2, rc=5.1719 Bohr: 3d-sz confined orbital
      l=0, rc=5.3281 Bohr: 4s-dz split-valence wave
      l=2, rc=3.1406 Bohr: 3d-dz split-valence wave
      l=1, rc=8.9688 Bohr: p-type Gaussian polarization

Reference energy: -2161029.688374

Spin-paired calculation

Occupation numbers:
  Fermi-Dirac: width=0.1000 eV

Convergence criteria:
  Maximum total energy change: 0.0005 eV / electron
  Maximum integral of absolute density change: 0.0001 electrons
  Maximum integral of absolute eigenstate change: 4e-08 eV^2
  Maximum number of iterations: 333

Symmetries present (total): 2

  ( 1  0  0)  ( 1  0  0)
  ( 0  1  0)  ( 0 -1  0)
  ( 0  0  1)  ( 0  0  1)

16 k-points: 4 x 4 x 1 Monkhorst-Pack grid
4 k-points in the irreducible part of the Brillouin zone
       k-points in crystal coordinates                weights
   0:     0.12500000    0.12500000    0.00000000          4/16
   1:     0.12500000    0.37500000    0.00000000          4/16
   2:     0.37500000    0.12500000    0.00000000          4/16
   3:     0.37500000    0.37500000    0.00000000          4/16

Wave functions: Plane wave expansion
  Cutoff energy: 600.000 eV
  Number of coefficients (min, max): 44425, 44535
  Pulay-stress correction: 0.000000 eV/Ang^3 (de/decut=0.000000)
  Using Numpy's FFT
  ScaLapack parameters: grid=1x1, blocksize=None
  Wavefunction extrapolation:
    Improved wavefunction reuse through dual PAW basis

Eigensolver
   Davidson(niter=2, smin=None, normalize=True)

Densities:
  Coarse grid: 30*42*196 grid
  Fine grid: 60*84*392 grid
  Total Charge: 0.000000

Density mixing:
  Method: separate
  Backend: pulay
  Linear mixing parameter: 0.05
  Mixing with 5 old densities
  Damping of long wave oscillations: 50

Hamiltonian:
  XC and Coulomb potentials evaluated on a 60*84*392 grid
  Using the BEEF-vdW Exchange-Correlation functional

XC parameters: BEEF-vdW with 2 nearest neighbor stencil

Total number of cores used: 32
Parallelization over k-points: 4
Domain decomposition: 1 x 1 x 8

Number of atoms: 48
Number of atomic orbitals: 720
Number of bands in calculation: 321
Bands to converge: occupied states only
Number of valence electrons: 528

... initialized

Initializing position-dependent things.

Density initialized from atomic densities
Creating initial wave functions:
  321 bands from LCAO basis set

 |    |  Cu    Cu  |
 |  CuCu   CuCu    |
 |    |  Cu    Cu  |
 |Cu  CuCu   Cu    |
 |  Cu|  CuCu  Cu  |
 |Cu  CuCu   Cu    |
 |  Cu|  CuCu  Cu  |
 |Cu  | Cu         |
 |  CuCu CuCuCuCu  |
 |Cu  | Cu         |
 |  CuCu CuCuCuCu  |
 |CuCuCuCu CuCu    |
 |Cu  | Cu         |

Positions:
   0 Cu     2.893960    0.000000   10.000000    ( 0.0000,  0.0000,  0.0000)
   1 Cu     1.585459    1.850500   11.308501    ( 0.0000,  0.0000,  0.0000)
   2 Cu     4.202462    1.850500   11.308501    ( 0.0000,  0.0000,  0.0000)
   3 Cu     0.276958    0.000000   10.000000    ( 0.0000,  0.0000,  0.0000)
   4 Cu     0.276958    0.000000   12.617002    ( 0.0000,  0.0000,  0.0000)
   5 Cu     4.202462    1.850500   13.925503    ( 0.0000,  0.0000,  0.0000)
   6 Cu     1.585459    1.850500   13.925503    ( 0.0000,  0.0000,  0.0000)
   7 Cu     2.893960    0.000000   12.617002    ( 0.0000,  0.0000,  0.0000)
   8 Cu     2.893960    0.000000   15.234004    ( 0.0000,  0.0000,  0.0000)
   9 Cu     1.585459    1.850500   16.542505    ( 0.0000,  0.0000,  0.0000)
  10 Cu     4.202462    1.850500   16.542505    ( 0.0000,  0.0000,  0.0000)
  11 Cu     0.276958    0.000000   15.234004    ( 0.0000,  0.0000,  0.0000)
  12 Cu     0.276958    0.000000   17.851007    ( 0.0000,  0.0000,  0.0000)
  13 Cu     4.202462    1.850500   19.159508    ( 0.0000,  0.0000,  0.0000)
  14 Cu     1.585459    1.850500   19.159508    ( 0.0000,  0.0000,  0.0000)
  15 Cu     2.893960    0.000000   17.851007    ( 0.0000,  0.0000,  0.0000)
  16 Cu     2.893960    0.000000   20.468009    ( 0.0000,  0.0000,  0.0000)
  17 Cu     1.585459    1.850500   21.776510    ( 0.0000,  0.0000,  0.0000)
  18 Cu     4.202462    1.850500   21.776510    ( 0.0000,  0.0000,  0.0000)
  19 Cu     0.276958    0.000000   20.468009    ( 0.0000,  0.0000,  0.0000)
  20 Cu     0.276958    0.000000   23.085011    ( 0.0000,  0.0000,  0.0000)
  21 Cu     4.202462    1.850500   24.393512    ( 0.0000,  0.0000,  0.0000)
  22 Cu     1.585459    1.850500   24.393512    ( 0.0000,  0.0000,  0.0000)
  23 Cu     2.893960    0.000000   23.085011    ( 0.0000,  0.0000,  0.0000)
  24 Cu     2.893960    3.701000   10.000000    ( 0.0000,  0.0000,  0.0000)
  25 Cu     1.585459    5.551500   11.308501    ( 0.0000,  0.0000,  0.0000)
  26 Cu     4.202462    5.551500   11.308501    ( 0.0000,  0.0000,  0.0000)
  27 Cu     0.276958    3.701000   10.000000    ( 0.0000,  0.0000,  0.0000)
  28 Cu     0.276958    3.701000   12.617002    ( 0.0000,  0.0000,  0.0000)
  29 Cu     4.202462    5.551500   13.925503    ( 0.0000,  0.0000,  0.0000)
  30 Cu     1.585459    5.551500   13.925503    ( 0.0000,  0.0000,  0.0000)
  31 Cu     2.893960    3.701000   12.617002    ( 0.0000,  0.0000,  0.0000)
  32 Cu     2.893960    3.701000   15.234004    ( 0.0000,  0.0000,  0.0000)
  33 Cu     1.585459    5.551500   16.542505    ( 0.0000,  0.0000,  0.0000)
  34 Cu     4.202462    5.551500   16.542505    ( 0.0000,  0.0000,  0.0000)
  35 Cu     0.276958    3.701000   15.234004    ( 0.0000,  0.0000,  0.0000)
  36 Cu     0.276958    3.701000   17.851007    ( 0.0000,  0.0000,  0.0000)
  37 Cu     4.202462    5.551500   19.159508    ( 0.0000,  0.0000,  0.0000)
  38 Cu     1.585459    5.551500   19.159508    ( 0.0000,  0.0000,  0.0000)
  39 Cu     2.893960    3.701000   17.851007    ( 0.0000,  0.0000,  0.0000)
  40 Cu     2.893960    3.701000   20.468009    ( 0.0000,  0.0000,  0.0000)
  41 Cu     1.585459    5.551500   21.776510    ( 0.0000,  0.0000,  0.0000)
  42 Cu     4.202462    5.551500   21.776510    ( 0.0000,  0.0000,  0.0000)
  43 Cu     0.276958    3.701000   20.468009    ( 0.0000,  0.0000,  0.0000)
  44 Cu     0.276958    3.701000   23.085011    ( 0.0000,  0.0000,  0.0000)
  45 Cu     4.202462    5.551500   24.393512    ( 0.0000,  0.0000,  0.0000)
  46 Cu     1.585459    5.551500   24.393512    ( 0.0000,  0.0000,  0.0000)
  47 Cu     2.893960    3.701000   23.085011    ( 0.0000,  0.0000,  0.0000)

Unit cell:
           periodic     x           y           z      points  spacing
  1. axis:    yes    5.234004    0.000000    0.000000    30     0.1745
  2. axis:    yes    0.000000    7.402000    0.000000    42     0.1762
  3. axis:    yes    0.000000    0.000000   34.393512   196     0.1755

  Lengths:   5.234004   7.402000  34.393512
  Angles:   90.000000  90.000000  90.000000

Effective grid spacing dv^(1/3) = 0.1754

                     log10-error:    total        iterations:
           time      wfs    density  energy       fermi  poisson
iter:   1  21:28:13  +0.11   +inf  -3659.374198    3
iter:   2  21:28:30  -1.64  -1.21  -3649.785010    35
iter:   3  21:28:47  -1.00  -1.28  -3647.279187    35
iter:   4  21:29:05  -1.30  -1.44  -3636.294571    34
iter:   5  21:29:22  -2.37  -1.65  -3636.223324    3
iter:   6  21:29:39  -1.73  -1.67  -3642.934615    36
iter:   7  21:29:57  -2.15  -1.73  -3635.705357    4
iter:   8  21:30:14  -2.76  -1.99  -3635.507726    3
iter:   9  21:30:32  -3.03  -1.96  -3634.612980    4
iter:  10  21:30:49  -3.19  -2.11  -3634.735679    3
iter:  11  21:31:06  -3.60  -2.15  -3634.711970    3
iter:  12  21:31:23  -2.89  -2.26  -3634.279253    4
iter:  13  21:31:40  -2.97  -2.48  -3634.126103    4
iter:  14  21:31:58  -3.37  -2.62  -3634.079570    3
iter:  15  21:32:15  -4.50  -2.91  -3634.053382    3
iter:  16  21:32:33  -5.06  -3.22  -3634.051838    3
iter:  17  21:32:50  -5.23  -3.27  -3634.052672    3
iter:  18  21:33:08  -5.52  -3.28  -3634.051752    3
iter:  19  21:33:24  -4.53  -3.31  -3634.057112    3
iter:  20  21:33:42  -5.94  -3.18  -3634.055449    2
iter:  21  21:34:00  -4.97  -3.23  -3634.050201    2
iter:  22  21:34:16  -5.37  -3.48  -3634.050398    2
iter:  23  21:34:34  -5.07  -3.51  -3634.049491    3
iter:  24  21:34:52  -6.41  -3.76  -3634.049384    2
iter:  25  21:35:08  -6.07  -3.79  -3634.048838    2
iter:  26  21:35:26  -6.47  -4.13  -3634.048803    2
iter:  27  21:35:44  -7.09  -4.26  -3634.048788    2
iter:  28  21:36:01  -7.46  -4.44  -3634.048788    2

Converged after 28 iterations.

Dipole moment: (-46.934294, 0.000000, 0.000633) |e|*Ang

Energy contributions relative to reference atoms: (reference = -2161029.688374)

Kinetic:       +327.006210
Potential:     -368.881427
External:        +0.000000
XC:            -3591.193777
Entropy (-ST):   -0.553585
Local:           -0.703001
Free energy:   -3634.325581
Extrapolated:  -3634.048788

Fermi level: 0.74376

Showing only first 2 kpts
 Kpt  Band  Eigenvalues  Occupancy
  0   262      0.55647    0.43340
  0   263      0.68615    0.32009
  0   264      0.70416    0.29886
  0   265      0.87592    0.10528

  1   262      0.72170    0.27747
  1   263      0.72292    0.27596
  1   264      0.97740    0.04408
  1   265      1.40226    0.00069

No gap

Forces in eV/Ang:
  0 Cu    0.00048    0.00000    0.27304
  1 Cu    0.00020   -0.00000   -0.27059
  2 Cu    0.00020   -0.00000   -0.27059
  3 Cu    0.00048    0.00000    0.27304
  4 Cu    0.00034    0.00000   -0.03861
  5 Cu    0.00011    0.00000   -0.03171
  6 Cu    0.00011   -0.00000   -0.03171
  7 Cu    0.00034    0.00000   -0.03861
  8 Cu    0.00025    0.00000    0.00805
  9 Cu    0.00005   -0.00000   -0.02456
 10 Cu    0.00005    0.00000   -0.02456
 11 Cu    0.00025    0.00000    0.00805
 12 Cu    0.00023    0.00000    0.02336
 13 Cu    0.00007   -0.00000   -0.00972
 14 Cu    0.00007   -0.00000   -0.00972
 15 Cu    0.00023    0.00000    0.02336
 16 Cu    0.00029    0.00000    0.02790
 17 Cu    0.00016   -0.00000    0.03644
 18 Cu    0.00016   -0.00000    0.03644
 19 Cu    0.00029    0.00000    0.02790
 20 Cu    0.00038    0.00000    0.26557
 21 Cu    0.00026    0.00000   -0.27258
 22 Cu    0.00026    0.00000   -0.27259
 23 Cu    0.00038    0.00000    0.26557
 24 Cu    0.00048    0.00000    0.27304
 25 Cu    0.00020    0.00000   -0.27059
 26 Cu    0.00020    0.00000   -0.27059
 27 Cu    0.00048    0.00000    0.27304
 28 Cu    0.00034    0.00000   -0.03861
 29 Cu    0.00011   -0.00000   -0.03171
 30 Cu    0.00011    0.00000   -0.03171
 31 Cu    0.00034    0.00000   -0.03861
 32 Cu    0.00025    0.00000    0.00805
 33 Cu    0.00005    0.00000   -0.02456
 34 Cu    0.00005   -0.00000   -0.02456
 35 Cu    0.00025    0.00000    0.00805
 36 Cu    0.00023    0.00000    0.02336
 37 Cu    0.00007    0.00000   -0.00972
 38 Cu    0.00007    0.00000   -0.00972
 39 Cu    0.00023    0.00000    0.02336
 40 Cu    0.00029    0.00000    0.02790
 41 Cu    0.00016    0.00000    0.03644
 42 Cu    0.00016    0.00000    0.03644
 43 Cu    0.00029    0.00000    0.02790
 44 Cu    0.00038    0.00000    0.26557
 45 Cu    0.00026   -0.00000   -0.27258
 46 Cu    0.00026   -0.00000   -0.27259
 47 Cu    0.00038    0.00000    0.26557

System changes: positions

[...]

Density initialized from wave functions
 |    |  Cu    Cu  |
 |  CuCu   CuCu    |
 |    |  Cu    Cu  |
 |Cu  CuCu   Cu    |
 |  Cu|  CuCu  Cu  |
 |Cu  CuCu   Cu    |
 |  Cu|  CuCu  Cu  |
 |Cu  | Cu         |
 |  CuCu CuCuCuCu  |
 |Cu  | Cu         |
 |  CuCu CuCuCuCu  |
 |CuCuCuCu CuCu    |
 |Cu  | Cu         |

[...]

Density initialized from wave functions
 |    |  Cu    Cu  |
 |  CuCu   CuCu    |
 |    |  Cu    Cu  |
 |CuCuCuCu CuCu    |
 |    |  Cu    Cu  |
 |Cu  CuCu   Cu    |
 |  Cu|  CuCu  Cu  |
 |Cu  | Cu         |
 |  CuCu CuCuCuCu  |
 |Cu  | Cu         |
 |  CuCu   CuCu    |
 |    |  Cu    Cu  |
 |CuCuCuCu CuCu    |
 |Cu  | Cu         |

[...]

System changes: positions

Initializing position-dependent things.

Density initialized from wave functions
 |    |  Cu    Cu  |
 |  CuCu   CuCu    |
 |    |  Cu    Cu  |
 |CuCuCuCu CuCu    |
 |    |  Cu    Cu  |
 |Cu  CuCu   Cu    |
 |  Cu|  CuCu  Cu  |
 |Cu  | Cu         |
 |  CuCu CuCuCuCu  |
 |Cu  | Cu         |
 |  CuCu   CuCu    |
 |    |  Cu    Cu  |
 |CuCuCuCu CuCu    |
 |Cu  | Cu         |

Positions:
   0 Cu     2.894081    0.000000   10.056205    ( 0.0000,  0.0000,  0.0000)
   1 Cu     1.585525    1.850500   11.254296    ( 0.0000,  0.0000,  0.0000)
   2 Cu     4.202527    1.850500   11.254296    ( 0.0000,  0.0000,  0.0000)
   3 Cu     0.277079    0.000000   10.056205    ( 0.0000,  0.0000,  0.0000)
   4 Cu     0.277048    0.000000   12.612476    ( 0.0000,  0.0000,  0.0000)
   5 Cu     4.202503    1.850500   13.911703    ( 0.0000,  0.0000,  0.0000)
   6 Cu     1.585500    1.850500   13.911703    ( 0.0000,  0.0000,  0.0000)
   7 Cu     2.894050    0.000000   12.612476    ( 0.0000,  0.0000,  0.0000)
   8 Cu     2.894026    0.000000   15.232917    ( 0.0000,  0.0000,  0.0000)
   9 Cu     1.585485    1.850500   16.538550    ( 0.0000,  0.0000,  0.0000)
  10 Cu     4.202487    1.850500   16.538550    ( 0.0000,  0.0000,  0.0000)
  11 Cu     0.277024    0.000000   15.232917    ( 0.0000,  0.0000,  0.0000)
  12 Cu     0.277017    0.000000   17.854231    ( 0.0000,  0.0000,  0.0000)
  13 Cu     4.202494    1.850500   19.159758    ( 0.0000,  0.0000,  0.0000)
  14 Cu     1.585492    1.850500   19.159758    ( 0.0000,  0.0000,  0.0000)
  15 Cu     2.894020    0.000000   17.854231    ( 0.0000,  0.0000,  0.0000)
  16 Cu     2.894036    0.000000   20.480955    ( 0.0000,  0.0000,  0.0000)
  17 Cu     1.585514    1.850500   21.780275    ( 0.0000,  0.0000,  0.0000)
  18 Cu     4.202516    1.850500   21.780275    ( 0.0000,  0.0000,  0.0000)
  19 Cu     0.277034    0.000000   20.480955    ( 0.0000,  0.0000,  0.0000)
  20 Cu     0.277055    0.000000   23.138340    ( 0.0000,  0.0000,  0.0000)
  21 Cu     4.202529    1.850500   24.336830    ( 0.0000,  0.0000,  0.0000)
  22 Cu     1.585527    1.850500   24.336830    ( 0.0000,  0.0000,  0.0000)
  23 Cu     2.894058    0.000000   23.138340    ( 0.0000,  0.0000,  0.0000)
  24 Cu     2.894081    3.701000   10.056205    ( 0.0000,  0.0000,  0.0000)
  25 Cu     1.585525    5.551500   11.254296    ( 0.0000,  0.0000,  0.0000)
  26 Cu     4.202527    5.551500   11.254296    ( 0.0000,  0.0000,  0.0000)
  27 Cu     0.277079    3.701000   10.056205    ( 0.0000,  0.0000,  0.0000)
  28 Cu     0.277048    3.701000   12.612476    ( 0.0000,  0.0000,  0.0000)
  29 Cu     4.202503    5.551500   13.911703    ( 0.0000,  0.0000,  0.0000)
  30 Cu     1.585500    5.551500   13.911703    ( 0.0000,  0.0000,  0.0000)
  31 Cu     2.894050    3.701000   12.612476    ( 0.0000,  0.0000,  0.0000)
  32 Cu     2.894026    3.701000   15.232917    ( 0.0000,  0.0000,  0.0000)
  33 Cu     1.585485    5.551500   16.538550    ( 0.0000,  0.0000,  0.0000)
  34 Cu     4.202487    5.551500   16.538550    ( 0.0000,  0.0000,  0.0000)
  35 Cu     0.277024    3.701000   15.232917    ( 0.0000,  0.0000,  0.0000)
  36 Cu     0.277017    3.701000   17.854231    ( 0.0000,  0.0000,  0.0000)
  37 Cu     4.202494    5.551500   19.159758    ( 0.0000,  0.0000,  0.0000)
  38 Cu     1.585492    5.551500   19.159758    ( 0.0000,  0.0000,  0.0000)
  39 Cu     2.894020    3.701000   17.854231    ( 0.0000,  0.0000,  0.0000)
  40 Cu     2.894036    3.701000   20.480955    ( 0.0000,  0.0000,  0.0000)
  41 Cu     1.585514    5.551500   21.780275    ( 0.0000,  0.0000,  0.0000)
  42 Cu     4.202516    5.551500   21.780275    ( 0.0000,  0.0000,  0.0000)
  43 Cu     0.277034    3.701000   20.480955    ( 0.0000,  0.0000,  0.0000)
  44 Cu     0.277055    3.701000   23.138340    ( 0.0000,  0.0000,  0.0000)
  45 Cu     4.202529    5.551500   24.336830    ( 0.0000,  0.0000,  0.0000)
  46 Cu     1.585527    5.551500   24.336830    ( 0.0000,  0.0000,  0.0000)
  47 Cu     2.894058    3.701000   23.138340    ( 0.0000,  0.0000,  0.0000)

Unit cell:
           periodic     x           y           z      points  spacing
  1. axis:    yes    5.234004    0.000000    0.000000    30     0.1745
  2. axis:    yes    0.000000    7.402000    0.000000    42     0.1762
  3. axis:    yes    0.000000    0.000000   34.393512   196     0.1755

  Lengths:   5.234004   7.402000  34.393512
  Angles:   90.000000  90.000000  90.000000

Effective grid spacing dv^(1/3) = 0.1754

                     log10-error:    total        iterations:
           time      wfs    density  energy       fermi  poisson
iter:   1  21:46:23  -3.17   +inf  -3634.316667    3
iter:   2  21:46:41  -3.22  -2.66  -3634.773134    3
iter:   3  21:46:58  -3.61  -2.32  -3634.191590    3
iter:   4  21:47:15  -4.01  -3.05  -3634.180937    3
iter:   5  21:47:32  -5.37  -3.43  -3634.179759    3
iter:   6  21:47:49  -5.48  -3.59  -3634.178851    3
iter:   7  21:48:07  -5.26  -3.76  -3634.178662    3
iter:   8  21:48:24  -7.01  -4.00  -3634.178588    2
iter:   9  21:48:41  -5.62  -4.04  -3634.178500    2
iter:  10  21:48:58  -6.79  -4.26  -3634.178431    2
iter:  11  21:49:15  -7.39  -4.45  -3634.178417    2
iter:  12  21:49:34  -6.56  -4.51  -3634.178412    2
iter:  13  21:49:51  -7.65  -4.72  -3634.178415    2

Converged after 13 iterations.

Dipole moment: (-46.951031, 0.000000, 0.000731) |e|*Ang

Energy contributions relative to reference atoms: (reference = -2161029.688374)

Kinetic:       +329.144896
Potential:     -370.596869
External:        +0.000000
XC:            -3591.809141
Entropy (-ST):   -0.547365
Local:           -0.643619
Free energy:   -3634.452097
Extrapolated:  -3634.178415

Fermi level: 0.72246

Showing only first 2 kpts
 Kpt  Band  Eigenvalues  Occupancy
  0   262      0.52371    0.43974
  0   263      0.63761    0.35013
  0   264      0.69418    0.28512
  0   265      0.83814    0.11962

  1   262      0.68092    0.30119
  1   263      0.73078    0.23960
  1   264      0.96655    0.04005
  1   265      1.35861    0.00086

No gap

Forces in eV/Ang:
  0 Cu    0.00021    0.00000    0.00557
  1 Cu    0.00023   -0.00000    0.00958
  2 Cu    0.00023   -0.00000    0.00958
  3 Cu    0.00021    0.00000    0.00557
  4 Cu    0.00022    0.00000   -0.00188
  5 Cu    0.00016    0.00000   -0.01781
  6 Cu    0.00016    0.00000   -0.01781
  7 Cu    0.00022    0.00000   -0.00188
  8 Cu    0.00015    0.00000   -0.02091
  9 Cu    0.00015   -0.00000   -0.00903
 10 Cu    0.00015   -0.00000   -0.00903
 11 Cu    0.00015    0.00000   -0.02091
 12 Cu    0.00013    0.00000    0.00720
 13 Cu    0.00017    0.00000    0.01949
 14 Cu    0.00017    0.00000    0.01949
 15 Cu    0.00013    0.00000    0.00720
 16 Cu    0.00014    0.00000    0.01722
 17 Cu    0.00023   -0.00000    0.00027
 18 Cu    0.00023    0.00000    0.00027
 19 Cu    0.00014    0.00000    0.01722
 20 Cu    0.00017    0.00000   -0.00966
 21 Cu    0.00014   -0.00000   -0.00843
 22 Cu    0.00014   -0.00000   -0.00842
 23 Cu    0.00017    0.00000   -0.00966
 24 Cu    0.00021    0.00000    0.00557
 25 Cu    0.00023    0.00000    0.00958
 26 Cu    0.00023    0.00000    0.00958
 27 Cu    0.00021    0.00000    0.00557
 28 Cu    0.00022    0.00000   -0.00188
 29 Cu    0.00016   -0.00000   -0.01781
 30 Cu    0.00016   -0.00000   -0.01781
 31 Cu    0.00022    0.00000   -0.00188
 32 Cu    0.00015    0.00000   -0.02091
 33 Cu    0.00015    0.00000   -0.00903
 34 Cu    0.00015    0.00000   -0.00903
 35 Cu    0.00015    0.00000   -0.02091
 36 Cu    0.00013    0.00000    0.00720
 37 Cu    0.00017   -0.00000    0.01949
 38 Cu    0.00017   -0.00000    0.01949
 39 Cu    0.00013    0.00000    0.00720
 40 Cu    0.00014    0.00000    0.01722
 41 Cu    0.00023    0.00000    0.00027
 42 Cu    0.00023   -0.00000    0.00027
 43 Cu    0.00014    0.00000    0.01722
 44 Cu    0.00017    0.00000   -0.00966
 45 Cu    0.00014    0.00000   -0.00843
 46 Cu    0.00014    0.00000   -0.00842
 47 Cu    0.00017    0.00000   -0.00966