User:   thorkong@node028.cluster
Date:   Sat Oct  8 22:10:57 2022
Arch:   x86_64
Pid:    24296
Python: 3.10.5
gpaw:   /groups/kemi/thorkong/miniconda3/envs/gpaw22/lib/python3.10/site-packages/gpaw
_gpaw:  /groups/kemi/thorkong/miniconda3/envs/gpaw22/lib/python3.10/site-packages/
        _gpaw.cpython-310-x86_64-linux-gnu.so
ase:    /groups/kemi/thorkong/miniconda3/envs/gpaw22/lib/python3.10/site-packages/ase (version 3.22.1)
numpy:  /groups/kemi/thorkong/miniconda3/envs/gpaw22/lib/python3.10/site-packages/numpy (version 1.23.0)
scipy:  /groups/kemi/thorkong/miniconda3/envs/gpaw22/lib/python3.10/site-packages/scipy (version 1.8.1)
units:  Angstrom and eV
cores: 32
OpenMP: True
OMP_NUM_THREADS: 1

Input parameters:
  basis: dzp
  kpts: [4 4 1]
  mode: {ecut: 600.0,
         name: pw}
  xc: BEEF-vdW

System changes: positions, numbers, cell, pbc, initial_charges, initial_magmoms

Initialize ...

Cu-setup:
  name: Copper
  id: f1c4d45d90492f1bbfdcb091e8418fdf
  Z: 29.0
  valence: 11
  core: 18
  charge: 0.0
  file: /groups/kemi/thorkong/miniconda3/envs/gpaw22/share/gpaw/Cu.PBE.gz
  compensation charges: gauss, rc=0.33, lmax=2
  cutoffs: 2.06(filt), 2.43(core),
  valence states:
                energy  radius
    4s(1.00)    -4.609   1.164
    4p(0.00)    -0.698   1.164
    3d(10.00)    -5.039   1.058
    *s          22.603   1.164
    *p          26.513   1.164
    *d          22.172   1.058

  LCAO basis set for Cu:
    Name: dzp
    File: /groups/kemi/thorkong/miniconda3/envs/gpaw22/share/gpaw/Cu.dzp.basis.gz
    Number of radial functions: 5
    Number of spherical harmonics: 15
      l=0, rc=8.9688 Bohr: 4s-sz confined orbital
      l=2, rc=5.1719 Bohr: 3d-sz confined orbital
      l=0, rc=5.3281 Bohr: 4s-dz split-valence wave
      l=2, rc=3.1406 Bohr: 3d-dz split-valence wave
      l=1, rc=8.9688 Bohr: p-type Gaussian polarization

Cl-setup:
  name: Chlorine
  id: 726897f06f34e53cf8e33b5885a02604
  Z: 17.0
  valence: 7
  core: 10
  charge: 0.0
  file: /groups/kemi/thorkong/miniconda3/envs/gpaw22/share/gpaw/Cl.PBE.gz
  compensation charges: gauss, rc=0.25, lmax=2
  cutoffs: 1.40(filt), 1.49(core),
  valence states:
                energy  radius
    3s(2.00)   -20.689   0.794
    3p(5.00)    -8.594   0.794
    *s           6.523   0.794
    *p          18.617   0.794
    *d           0.000   0.794

  LCAO basis set for Cl:
    Name: dzp
    File: /groups/kemi/thorkong/miniconda3/envs/gpaw22/share/gpaw/Cl.dzp.basis.gz
    Number of radial functions: 5
    Number of spherical harmonics: 13
      l=0, rc=5.1719 Bohr: 3s-sz confined orbital
      l=1, rc=6.2656 Bohr: 3p-sz confined orbital
      l=0, rc=2.8281 Bohr: 3s-dz split-valence wave
      l=1, rc=3.5156 Bohr: 3p-dz split-valence wave
      l=2, rc=6.2656 Bohr: d-type Gaussian polarization

Reference energy: -3266654.431352

Spin-paired calculation

Convergence criteria:
 Maximum [total energy] change in last 3 cyles: 0.0005 eV / electron
 Maximum integral of absolute [dens]ity change: 0.0001 electrons / valence electron
 Maximum integral of absolute [eigenst]ate change: 4e-08 eV^2 / valence electron
 Maximum number of scf [iter]ations: 333
 (Square brackets indicate name in SCF output, whereas a 'c' in
 the SCF output indicates the quantity has converged.)

Symmetries present (total): 1

  ( 1  0  0)
  ( 0  1  0)
  ( 0  0  1)

16 k-points: 4 x 4 x 1 Monkhorst-Pack grid
8 k-points in the irreducible part of the Brillouin zone
       k-points in crystal coordinates                weights
   0:     0.12500000   -0.37500000    0.00000000          2/16
   1:     0.12500000   -0.12500000    0.00000000          2/16
   2:     0.12500000    0.12500000    0.00000000          2/16
   3:     0.12500000    0.37500000    0.00000000          2/16
   4:     0.37500000   -0.37500000    0.00000000          2/16
   5:     0.37500000   -0.12500000    0.00000000          2/16
   6:     0.37500000    0.12500000    0.00000000          2/16
   7:     0.37500000    0.37500000    0.00000000          2/16

Wave functions: Plane wave expansion
  Cutoff energy: 600.000 eV
  Number of coefficients (min, max): 66642, 66743
  Pulay-stress correction: 0.000000 eV/Ang^3 (de/decut=0.000000)
  Using FFTW library
  ScaLapack parameters: grid=2x2, blocksize=64
  Wavefunction extrapolation:
    Improved wavefunction reuse through dual PAW basis

Occupation numbers: Fermi-Dirac: width=0.1000 eV

Eigensolver
   Davidson(niter=2)

Densities:
  Coarse grid: 45*42*196 grid
  Fine grid: 90*84*392 grid
  Total Charge: 0.000000

Density mixing:
  Method: separate
  Backend: pulay
  Linear mixing parameter: 0.05
  Mixing with 5 old densities
  Damping of long wave oscillations: 50

Hamiltonian:
  XC and Coulomb potentials evaluated on a 90*84*392 grid
  Using the BEEF-vdW Exchange-Correlation functional
  External potential:
    NoExternalPotential

XC parameters: BEEF-vdW with 2 nearest neighbor stencil

Total number of cores used: 32
Parallelization over k-points: 8
Domain decomposition: 1 x 1 x 4
                      2 x 2 x 8 (xc only)

Number of atoms: 74
Number of atomic orbitals: 1106
Number of bands in calculation: 488
Number of valence electrons: 806
Bands to converge: occupied

... initialized

Initializing position-dependent things.

Density initialized from atomic densities
Creating initial wave functions:
  488 bands from LCAO basis set

 |    |      Cl          |
 |    |CuCu  CuCu  CuCu  |
 |  CuCu   CCu   CuCu    |
 |    |CuCu  CuCu  CuCu  |
 |  CuCu   CCu   CuCu    |
 |    |  Cu  CuCu  CuCu  |
 |    Cu    Cu     Cu    |
 |  Cu|CuCuCu  CuCu  Cu  |
 |Cu  |                  |
 |  CuCu CCuCu CuCuCuCu  |
 |    |Cu                |
 |    | Cu    Cu         |
 |  CuCu  CuCu CuCuCu    |
 |    |  Cu          Cu  |
 |  CuCuCuCuCuCu CuCu    |
 |    |        Cl        |
 |Cu  | Cu    Cu         |

Positions:
   0 Cu     2.884095    0.047753   10.016648    ( 0.0000,  0.0000,  0.0000)
   1 Cu     1.579165    1.850681   11.263364    ( 0.0000,  0.0000,  0.0000)
   2 Cu     4.203493    1.849885   11.279590    ( 0.0000,  0.0000,  0.0000)
   3 Cu     0.275823    0.010656   10.039114    ( 0.0000,  0.0000,  0.0000)
   4 Cu     0.277170   -0.011828   12.604708    ( 0.0000,  0.0000,  0.0000)
   5 Cu     4.203589    1.850637   13.915051    ( 0.0000,  0.0000,  0.0000)
   6 Cu     1.577351    1.850151   13.910339    ( 0.0000,  0.0000,  0.0000)
   7 Cu     2.888569    0.008746   12.611732    ( 0.0000,  0.0000,  0.0000)
   8 Cu     2.892233    0.000204   15.226368    ( 0.0000,  0.0000,  0.0000)
   9 Cu     1.587025    1.848665   16.539985    ( 0.0000,  0.0000,  0.0000)
  10 Cu     4.201337    1.849290   16.534936    ( 0.0000,  0.0000,  0.0000)
  11 Cu     0.277159   -0.003328   15.232515    ( 0.0000,  0.0000,  0.0000)
  12 Cu     0.276307    0.002261   17.858384    ( 0.0000,  0.0000,  0.0000)
  13 Cu     4.204262    1.850764   19.157893    ( 0.0000,  0.0000,  0.0000)
  14 Cu     1.585688    1.850510   19.164047    ( 0.0000,  0.0000,  0.0000)
  15 Cu     2.894891   -0.001613   17.852061    ( 0.0000,  0.0000,  0.0000)
  16 Cu     2.893487   -0.000136   20.480222    ( 0.0000,  0.0000,  0.0000)
  17 Cu     1.579422    1.858565   21.780174    ( 0.0000,  0.0000,  0.0000)
  18 Cu     4.208804    1.859216   21.776176    ( 0.0000,  0.0000,  0.0000)
  19 Cu     0.280477   -0.000436   20.493323    ( 0.0000,  0.0000,  0.0000)
  20 Cu     0.285578   -0.001154   23.167826    ( 0.0000,  0.0000,  0.0000)
  21 Cu     4.210704    1.895936   24.372579    ( 0.0000,  0.0000,  0.0000)
  22 Cu     1.576601    1.898058   24.375454    ( 0.0000,  0.0000,  0.0000)
  23 Cu     2.894264   -0.000184   23.082184    ( 0.0000,  0.0000,  0.0000)
  24 Cu     2.886265    3.655985   10.020263    ( 0.0000,  0.0000,  0.0000)
  25 Cu     1.593198    5.551522   11.225529    ( 0.0000,  0.0000,  0.0000)
  26 Cu     4.202775    5.551694   11.310117    ( 0.0000,  0.0000,  0.0000)
  27 Cu     0.276628    3.689173   10.039237    ( 0.0000,  0.0000,  0.0000)
  28 Cu     0.276839    3.712709   12.600409    ( 0.0000,  0.0000,  0.0000)
  29 Cu     4.203374    5.551653   13.911885    ( 0.0000,  0.0000,  0.0000)
  30 Cu     1.588300    5.551665   13.898532    ( 0.0000,  0.0000,  0.0000)
  31 Cu     2.888198    3.692157   12.616535    ( 0.0000,  0.0000,  0.0000)
  32 Cu     2.892509    3.700678   15.234841    ( 0.0000,  0.0000,  0.0000)
  33 Cu     1.585947    5.552752   16.534481    ( 0.0000,  0.0000,  0.0000)
  34 Cu     4.201997    5.553109   16.540681    ( 0.0000,  0.0000,  0.0000)
  35 Cu     0.278793    3.704337   15.225711    ( 0.0000,  0.0000,  0.0000)
  36 Cu     0.278014    3.699269   17.851651    ( 0.0000,  0.0000,  0.0000)
  37 Cu     4.204525    5.551362   19.166348    ( 0.0000,  0.0000,  0.0000)
  38 Cu     1.583461    5.550904   19.158595    ( 0.0000,  0.0000,  0.0000)
  39 Cu     2.895560    3.702214   17.857846    ( 0.0000,  0.0000,  0.0000)
  40 Cu     2.893284    3.700854   20.477242    ( 0.0000,  0.0000,  0.0000)
  41 Cu     1.579711    5.543155   21.775940    ( 0.0000,  0.0000,  0.0000)
  42 Cu     4.208426    5.542884   21.781008    ( 0.0000,  0.0000,  0.0000)
  43 Cu     0.270112    3.702039   20.480894    ( 0.0000,  0.0000,  0.0000)
  44 Cu     0.270456    3.702314   23.130481    ( 0.0000,  0.0000,  0.0000)
  45 Cu     4.212865    5.503310   24.376197    ( 0.0000,  0.0000,  0.0000)
  46 Cu     1.575385    5.504781   24.374553    ( 0.0000,  0.0000,  0.0000)
  47 Cu     2.893428    3.701587   23.112366    ( 0.0000,  0.0000,  0.0000)
  48 Cu     6.826055    1.849192   11.261812    ( 0.0000,  0.0000,  0.0000)
  49 Cu     5.521524    0.046237   10.018255    ( 0.0000,  0.0000,  0.0000)
  50 Cu     5.517186    0.008442   12.616797    ( 0.0000,  0.0000,  0.0000)
  51 Cu     6.826929    1.849465   13.911879    ( 0.0000,  0.0000,  0.0000)
  52 Cu     6.818687    1.852208   16.541407    ( 0.0000,  0.0000,  0.0000)
  53 Cu     5.513394    0.000657   15.234139    ( 0.0000,  0.0000,  0.0000)
  54 Cu     5.510761   -0.001262   17.858525    ( 0.0000,  0.0000,  0.0000)
  55 Cu     6.818004    1.847174   19.167211    ( 0.0000,  0.0000,  0.0000)
  56 Cu     6.820069    1.838791   21.792303    ( 0.0000,  0.0000,  0.0000)
  57 Cu     5.508430   -0.000163   20.494142    ( 0.0000,  0.0000,  0.0000)
  58 Cu     5.503920   -0.000014   23.167319    ( 0.0000,  0.0000,  0.0000)
  59 Cu     6.820296    1.862644   24.353946    ( 0.0000,  0.0000,  0.0000)
  60 Cu     6.811282    5.552634   11.225051    ( 0.0000,  0.0000,  0.0000)
  61 Cu     5.520320    3.653894   10.017375    ( 0.0000,  0.0000,  0.0000)
  62 Cu     5.517458    3.692817   12.612616    ( 0.0000,  0.0000,  0.0000)
  63 Cu     6.816519    5.551922   13.899358    ( 0.0000,  0.0000,  0.0000)
  64 Cu     6.820439    5.549260   16.534591    ( 0.0000,  0.0000,  0.0000)
  65 Cu     5.511177    3.700932   15.228766    ( 0.0000,  0.0000,  0.0000)
  66 Cu     5.509740    3.702845   17.853103    ( 0.0000,  0.0000,  0.0000)
  67 Cu     6.819674    5.554812   19.160324    ( 0.0000,  0.0000,  0.0000)
  68 Cu     6.819739    5.563321   21.787957    ( 0.0000,  0.0000,  0.0000)
  69 Cu     5.519339    3.701342   20.482408    ( 0.0000,  0.0000,  0.0000)
[...]
 62 Cu   -0.03025    0.04833   -0.10357
 63 Cu    0.02988   -0.00050    0.04981
 64 Cu   -0.00447    0.01183    0.03873
 65 Cu    0.00744    0.00032   -0.01563
 66 Cu    0.02147   -0.00942    0.00034
 67 Cu    0.00530   -0.00085    0.05042
 68 Cu    0.00068   -0.03766    0.03696
 69 Cu   -0.01210   -0.00056   -0.00977
 70 Cu   -0.11563    0.00227    0.04336
 71 Cu   -0.00931    0.01126   -0.05268
 72 Cl   -0.00343   -0.00522   -0.32697
 73 Cl    0.00349    0.00528    0.32072

System changes: positions

[...]

Density initialized from wave functions
 |    |      Cl          |
 |    |  Cu    Cu        |
 |    |Cu    Cu    CuCu  |
 |  CuCu   CCu   CuCu    |
 |    |CuCu  CuCu  CuCu  |
 |  CuCu    Cu   CuCu    |
 |    |  CuCuCuCu  CuCu  |
 |    Cu    Cu     Cu    |
 |  Cu|CuCuCuCuCuCu  Cu  |
 |Cu  |                  |
 |  CuCu CuCCu CuCuCuCu  |
 |    |Cu                |
 |    |       Cu         |
 |  CuCu  CuCu CuCuCu    |
 |    |  Cu          Cu  |
 |  CuCuCuCuCuCu CuCu    |
 |    |        Cl        |
 |Cu  | Cu    Cu         |

[...]

Density initialized from wave functions
 |    |      Cl          |
 |    |  Cu    Cu        |
 |    |Cu    Cu    CuCu  |
 |  CuCu   CCu   CuCu    |
 |    |CuCu  CuCu  CuCu  |
 |  CuCu    Cu   CuCu    |
 |    |CuCuCuCuCu    Cu  |
 |    Cu    Cu     Cu    |
 |  Cu|CuCuCuCuCuCuCuCu  |
 |    |       Cu         |
 |  CuCu CuCCu CuCuCuCu  |
 |    |Cu    Cu    Cu    |
 |  CuCu CuCCu CuCuCuCu  |
 |  CuCu   CCu   CuCu    |
 |    |        Cl        |
 |Cu  | Cu    Cu         |

[...]

     iter     time        total  log10-change:
                         energy  eigst   dens
iter:   1 23:30:42 -5526.482748  -2.33
iter:   2 23:31:58 -5525.955174  -2.84  -2.34
iter:   3 23:33:28 -5525.777363  -3.58  -2.53
iter:   4 23:34:54 -5526.001527c -3.49  -2.72
iter:   5 23:36:47 -5525.665831c -3.49  -2.53
iter:   6 23:38:16 -5525.651954c -4.46  -3.27
iter:   7 23:39:43 -5525.652428c -4.38  -3.41
iter:   8 23:41:04 -5525.651590c -5.51  -3.56
iter:   9 23:42:51 -5525.650013c -5.19  -3.66
iter:  10 23:44:22 -5525.649376c -5.82  -3.95
iter:  11 23:45:32 -5525.649434c -5.88  -4.01c
iter:  12 23:46:46 -5525.649142c -5.96  -3.91
iter:  13 23:48:08 -5525.649245c -6.15  -4.16c
iter:  14 23:49:24 -5525.649213c -6.97  -4.22c
iter:  15 23:50:46 -5525.649082c -6.60  -4.30c
iter:  16 23:52:07 -5525.649041c -6.34  -4.31c
iter:  17 23:53:36 -5525.649091c -6.75  -4.43c
iter:  18 23:55:04 -5525.649067c -7.32  -4.39c
iter:  19 23:56:16 -5525.649032c -7.11  -4.60c
iter:  20 23:57:36 -5525.649009c -7.07  -4.72c
iter:  21 23:59:03 -5525.649014c -7.88c -4.81c

[...]

Density initialized from wave functions
 |    |      Cl          |
 |    |  Cu    Cu        |
 |    |Cu    Cu    CuCu  |
 |  CuCu   CCu   CuCu    |
 |    |CuCu  CuCu  CuCu  |
 |  CuCu    Cu   CuCu    |
 |    |CuCuCuCuCu    Cu  |
 |    Cu    Cu     Cu    |
 |  Cu|CuCuCuCuCuCu  Cu  |
 |    |       Cu         |
 |  CuCu CCuCu CuCuCuCu  |
 |    |      Cu    Cu    |
 |    |       Cu         |
 |  CuCu CuCCu CuCuCuCu  |
 |CuCuCu  CuCu   CuCu    |
 |    |        Cl        |
 |Cu  | Cu    Cu         |

[...]

Density initialized from wave functions
 |    |      Cl          |
 |    |  Cu    Cu        |
 |    |              Cu  |
 |  CuCu   CCu   CuCu    |
 |    |  Cu  CuCu  CuCu  |
 |CuCuCuCu CCuCu CuCu    |
 |    |CuCu  CuCu  CuCu  |
 |Cu  Cu    Cu     Cu    |
 |  Cu|CuCuCu  CuCu  Cu  |
 |  CuCu CCuCu CuCuCuCu  |
 |    | Cu    Cu         |
 |  CuCu CCuCu CuCuCuCu  |
 |    |      Cu    Cu    |
 |CuCuCuCuCuCuCu CuCu    |
 |    |        Cl        |
 |Cu  |                  |

[...]

     iter     time        total  log10-change:
                         energy  eigst   dens
iter:   1 00:18:44 -5525.744567  -3.05
iter:   2 00:20:02 -5525.762949  -3.81  -2.90
iter:   3 00:21:29 -5525.713959c -4.23  -2.88
iter:   4 00:23:03 -5525.685345c -4.89  -3.04
iter:   5 00:24:26 -5525.682350c -4.25  -3.28
iter:   6 00:25:50 -5525.680296c -5.41  -3.65
iter:   7 00:27:09 -5525.680000c -5.98  -3.75
iter:   8 00:28:28 -5525.680063c -5.76  -3.84
iter:   9 00:30:04 -5525.680552c -6.13  -4.00c
iter:  10 00:31:29 -5525.680218c -6.56  -3.95
iter:  11 00:32:52 -5525.680049c -6.95  -4.21c
iter:  12 00:34:04 -5525.679918c -6.19  -4.32c
iter:  13 00:35:49 -5525.679899c -6.48  -4.45c
iter:  14 00:37:17 -5525.679857c -7.41c -4.58c

[...]

Density initialized from wave functions
 |    |      Cl          |
 |    |  Cu    Cu        |
 |    |Cu            Cu  |
 |  CuCu   CCu   CuCu    |
 |    |  Cu  CuCu  CuCu  |
 |  CuCuCu CCuCu CuCu    |
 |    |CuCu  CuCu  CuCu  |
 |Cu  Cu    Cu     Cu    |
 |  Cu|  CuCu  CuCu  Cu  |
 |  CuCu CCuCu CuCuCuCu  |
 |Cu  | Cu    Cu         |
 |  CuCu CCuCu CuCuCuCu  |
 |    |      Cu    Cu    |
 |CuCuCuCuCuCuCu CuCu    |
 |    |        Cl        |
 |Cu  |                  |

[...]

Density initialized from wave functions
 |    |      Cl          |
 |    |  Cu    Cu        |
 |    |Cu          CuCu  |
 |  CuCu   CCu   CuCu    |
 |    |  Cu  CuCu  CuCu  |
 |  CuCuCu CCu   CuCu    |
 |    |CuCu  CuCu    Cu  |
 |Cu  Cu    Cu     Cu    |
 |  Cu|  CuCu  CuCu  Cu  |
 |    |       Cu         |
 |  CuCu CuCCu CuCuCuCu  |
 |Cu  | Cu    Cu         |
 |  CuCu CCuCu CuCuCuCu  |
 |    |      Cu    Cu    |
 |CuCuCuCuCuCuCu CuCu    |
 |    |        Cl        |
 |Cu  |                  |

[...]

Density initialized from wave functions
 |    |      Cl          |
 |    |  Cu    Cu        |
 |    |Cu          CuCu  |
 |  CuCu   CCu   CuCu    |
 |    |  Cu  CuCu  CuCu  |
 |  CuCuCu CCu   CuCu    |
 |    |CuCu    Cu    Cu  |
 |Cu  Cu    Cu     Cu    |
 |  Cu|  CuCu  CuCu  Cu  |
 |    | Cu    Cu         |
 |  CuCu CuCCu CuCuCuCu  |
 |Cu  | Cu    Cu         |
 |  CuCu CCuCu CuCuCuCu  |
 |    |Cu    Cu    Cu    |
 |CuCuCuCuCuCuCu CuCu    |
 |    |        Cl        |

[...]

System changes: positions

Initializing position-dependent things.

Density initialized from wave functions
 |    |      Cl          |
 |    |  Cu    Cu        |
 |    |              Cu  |
 |  CuCu   CCu   CuCu    |
 |    |  Cu  CuCu    Cu  |
 |CuCuCuCu CCuCu CuCu    |
 |    |  Cu    Cu    Cu  |
 |Cu  Cu    CuCu   Cu    |
 |  Cu|  CuCu  CuCu  Cu  |
 |Cu  | Cu    Cu         |
 |  CuCu CuCCu CuCuCuCu  |
 |Cu  | Cu    Cu         |
 |  CuCu CCuCu CuCuCuCu  |
 |    |Cu    Cu    Cu    |
 |CuCuCuCuCuCuCu CuCu    |
 |    |        Cl        |

Positions:
   0 Cu     2.881307   -0.033051   10.012274    ( 0.0000,  0.0000,  0.0000)
   1 Cu     1.615014    1.849371   11.210930    ( 0.0000,  0.0000,  0.0000)
   2 Cu     4.202165    1.849367   11.210270    ( 0.0000,  0.0000,  0.0000)
   3 Cu     0.277313   -0.008781   10.065299    ( 0.0000,  0.0000,  0.0000)
   4 Cu     0.277151    0.030302   12.608007    ( 0.0000,  0.0000,  0.0000)
   5 Cu     4.202831    1.850049   13.905377    ( 0.0000,  0.0000,  0.0000)
   6 Cu     1.586793    1.850012   13.906871    ( 0.0000,  0.0000,  0.0000)
   7 Cu     2.892956    0.015833   12.593976    ( 0.0000,  0.0000,  0.0000)
   8 Cu     2.892560    0.002648   15.223860    ( 0.0000,  0.0000,  0.0000)
   9 Cu     1.586045    1.851568   16.539788    ( 0.0000,  0.0000,  0.0000)
  10 Cu     4.201930    1.851551   16.542306    ( 0.0000,  0.0000,  0.0000)
  11 Cu     0.277659    0.001974   15.225285    ( 0.0000,  0.0000,  0.0000)
  12 Cu     0.277837    0.000208   17.852273    ( 0.0000,  0.0000,  0.0000)
  13 Cu     4.204040    1.852536   19.170830    ( 0.0000,  0.0000,  0.0000)
  14 Cu     1.585562    1.852767   19.166905    ( 0.0000,  0.0000,  0.0000)
  15 Cu     2.895223    0.001462   17.855499    ( 0.0000,  0.0000,  0.0000)
  16 Cu     2.894457   -0.000421   20.462639    ( 0.0000,  0.0000,  0.0000)
  17 Cu     1.584881    1.865812   21.796081    ( 0.0000,  0.0000,  0.0000)
  18 Cu     4.204633    1.866726   21.801811    ( 0.0000,  0.0000,  0.0000)
  19 Cu     0.272395    0.000413   20.477134    ( 0.0000,  0.0000,  0.0000)
  20 Cu     0.261313    0.000192   23.092869    ( 0.0000,  0.0000,  0.0000)
  21 Cu     4.215798    1.820280   24.382235    ( 0.0000,  0.0000,  0.0000)
  22 Cu     1.573771    1.817734   24.374793    ( 0.0000,  0.0000,  0.0000)
  23 Cu     2.895776    0.000576   23.013343    ( 0.0000,  0.0000,  0.0000)
  24 Cu     2.881501    3.731487   10.010325    ( 0.0000,  0.0000,  0.0000)
  25 Cu     1.570867    5.551363   11.296211    ( 0.0000,  0.0000,  0.0000)
  26 Cu     4.201563    5.550913   11.379154    ( 0.0000,  0.0000,  0.0000)
  27 Cu     0.277287    3.709210   10.067168    ( 0.0000,  0.0000,  0.0000)
  28 Cu     0.277666    3.670873   12.611596    ( 0.0000,  0.0000,  0.0000)
  29 Cu     4.202774    5.551957   13.930054    ( 0.0000,  0.0000,  0.0000)
  30 Cu     1.581068    5.551422   13.914278    ( 0.0000,  0.0000,  0.0000)
  31 Cu     2.892683    3.684822   12.590513    ( 0.0000,  0.0000,  0.0000)
  32 Cu     2.893149    3.698875   15.221777    ( 0.0000,  0.0000,  0.0000)
  33 Cu     1.587109    5.549959   16.540304    ( 0.0000,  0.0000,  0.0000)
  34 Cu     4.202104    5.549977   16.537589    ( 0.0000,  0.0000,  0.0000)
  35 Cu     0.278273    3.699230   15.231830    ( 0.0000,  0.0000,  0.0000)
  36 Cu     0.276461    3.700926   17.852758    ( 0.0000,  0.0000,  0.0000)
  37 Cu     4.204602    5.548922   19.168611    ( 0.0000,  0.0000,  0.0000)
  38 Cu     1.584466    5.548778   19.172913    ( 0.0000,  0.0000,  0.0000)
  39 Cu     2.895393    3.700010   17.850531    ( 0.0000,  0.0000,  0.0000)
  40 Cu     2.894344    3.701412   20.487387    ( 0.0000,  0.0000,  0.0000)
  41 Cu     1.583925    5.535438   21.801505    ( 0.0000,  0.0000,  0.0000)
  42 Cu     4.204360    5.535603   21.798410    ( 0.0000,  0.0000,  0.0000)
  43 Cu     0.278379    3.700995   20.484548    ( 0.0000,  0.0000,  0.0000)
  44 Cu     0.305798    3.702184   23.178302    ( 0.0000,  0.0000,  0.0000)
  45 Cu     4.215997    5.584261   24.380253    ( 0.0000,  0.0000,  0.0000)
  46 Cu     1.573165    5.585656   24.380679    ( 0.0000,  0.0000,  0.0000)
  47 Cu     2.895132    3.702134   23.181769    ( 0.0000,  0.0000,  0.0000)
  48 Cu     6.791388    1.849319   11.213938    ( 0.0000,  0.0000,  0.0000)
  49 Cu     5.524238   -0.034309   10.011911    ( 0.0000,  0.0000,  0.0000)
  50 Cu     5.513327    0.015988   12.590807    ( 0.0000,  0.0000,  0.0000)
  51 Cu     6.818876    1.850480   13.908472    ( 0.0000,  0.0000,  0.0000)
  52 Cu     6.820626    1.850654   16.540160    ( 0.0000,  0.0000,  0.0000)
  53 Cu     5.512811    0.002794   15.219715    ( 0.0000,  0.0000,  0.0000)
  54 Cu     5.510013    0.001471   17.852607    ( 0.0000,  0.0000,  0.0000)
  55 Cu     6.818961    1.852303   19.161178    ( 0.0000,  0.0000,  0.0000)
  56 Cu     6.819662    1.880776   21.780926    ( 0.0000,  0.0000,  0.0000)
  57 Cu     5.516306    0.000118   20.478704    ( 0.0000,  0.0000,  0.0000)
  58 Cu     5.526676    0.000128   23.096436    ( 0.0000,  0.0000,  0.0000)
  59 Cu     6.820083    1.842411   24.325580    ( 0.0000,  0.0000,  0.0000)
  60 Cu     6.835779    5.551283   11.299810    ( 0.0000,  0.0000,  0.0000)
  61 Cu     5.523650    3.733878   10.017786    ( 0.0000,  0.0000,  0.0000)
  62 Cu     5.512379    3.685750   12.596170    ( 0.0000,  0.0000,  0.0000)
  63 Cu     6.824875    5.551107   13.915818    ( 0.0000,  0.0000,  0.0000)
  64 Cu     6.819323    5.551216   16.540751    ( 0.0000,  0.0000,  0.0000)
  65 Cu     5.511750    3.698675   15.225890    ( 0.0000,  0.0000,  0.0000)
  66 Cu     5.511150    3.700003   17.853038    ( 0.0000,  0.0000,  0.0000)
  67 Cu     6.819594    5.549493   19.167560    ( 0.0000,  0.0000,  0.0000)
  68 Cu     6.820161    5.521058   21.784567    ( 0.0000,  0.0000,  0.0000)
  69 Cu     5.510595    3.701447   20.486117    ( 0.0000,  0.0000,  0.0000)
  70 Cu     5.482397    3.702113   23.181291    ( 0.0000,  0.0000,  0.0000)
  71 Cu     6.820061    5.560150   24.327437    ( 0.0000,  0.0000,  0.0000)
  72 Cl     2.889217   -0.014580   25.880412    ( 0.0000,  0.0000,  0.0000)
  73 Cl     4.207809    5.566083    8.511975    ( 0.0000,  0.0000,  0.0000)

Unit cell:
           periodic     x           y           z      points  spacing
  1. axis:    yes    7.851007    0.000000    0.000000    45     0.1745
  2. axis:    yes    0.000000    7.402000    0.000000    42     0.1762
  3. axis:    yes    0.000000    0.000000   34.393512   196     0.1755

  Lengths:   7.851007   7.402000  34.393512
  Angles:   90.000000  90.000000  90.000000

Effective grid spacing dv^(1/3) = 0.1754

     iter     time        total  log10-change:
                         energy  eigst   dens
iter:   1 01:28:16 -5525.887982  -3.23
iter:   2 01:29:48 -5525.777655  -3.34  -2.66
iter:   3 01:31:11 -5525.731641c -4.22  -2.91
iter:   4 01:32:27 -5525.700082c -5.00  -3.04
iter:   5 01:33:50 -5525.698581c -4.83  -3.49
iter:   6 01:35:21 -5525.698219c -6.01  -3.83
iter:   7 01:36:54 -5525.698103c -5.77  -3.97
iter:   8 01:38:18 -5525.698083c -6.45  -4.09c
iter:   9 01:40:01 -5525.698044c -6.86  -4.27c
iter:  10 01:41:18 -5525.697966c -6.69  -4.47c
iter:  11 01:42:33 -5525.697967c -7.27  -4.48c
iter:  12 01:43:47 -5525.697952c -7.55c -4.70c

Converged after 12 iterations.

Dipole moment: (-70.447118, 1.283528, -0.000614) |e|*Ang

Energy contributions relative to reference atoms: (reference = -3266654.431352)

Kinetic:       +515.773150
Potential:     -575.700704
External:        +0.000000
XC:            -5464.418781
Entropy (-ST):   -0.714304
Local:           -0.994465
Free energy:   -5526.055104
Extrapolated:  -5525.697952

Showing only first 2 kpts
 Kpt  Band  Eigenvalues  Occupancy
  0   401      0.56990    1.65743
  0   402      0.73970    0.93935
  0   403      0.83164    0.52198
  0   404      0.91664    0.26229

  1   401      0.38588    1.93645
  1   402      0.41477    1.91606
  1   403      0.42631    1.90627
  1   404      0.53544    1.74454

Fermi level: 0.72756

No gap

Forces in eV/Ang:
  0 Cu    0.00961   -0.01473   -0.01219
  1 Cu   -0.00028    0.00160   -0.00510
  2 Cu    0.00056    0.00309    0.01945
  3 Cu   -0.00012   -0.01431    0.00593
  4 Cu    0.00261   -0.01531    0.00197
  5 Cu   -0.00076    0.00346    0.02573
  6 Cu    0.00869    0.00560    0.00845
  7 Cu   -0.00279   -0.00077    0.00848
  8 Cu    0.00266    0.00334    0.00277
  9 Cu   -0.00693   -0.00783    0.00233
 10 Cu    0.00558   -0.01034    0.00124
 11 Cu   -0.00240   -0.00223    0.00626
 12 Cu    0.00550   -0.01263   -0.01841
 13 Cu    0.00244    0.01024    0.01475
 14 Cu   -0.00820    0.01031    0.01441
 15 Cu   -0.00416   -0.01507   -0.02237
 16 Cu   -0.00030   -0.00059    0.00487
 17 Cu   -0.00087   -0.00009   -0.00564
 18 Cu    0.00226    0.00058   -0.01318
 19 Cu    0.00590   -0.00091    0.00163
 20 Cu    0.00030   -0.00247   -0.02400
 21 Cu   -0.00887   -0.01278    0.00291
 22 Cu    0.00969   -0.01279    0.00613
 23 Cu   -0.00055    0.00210   -0.02113
 24 Cu    0.00960    0.01273   -0.00356
 25 Cu   -0.00205   -0.00075    0.02758
 26 Cu    0.00083   -0.00205    0.02159
 27 Cu    0.00084    0.01216    0.00194
 28 Cu    0.00145    0.00997    0.00420
 29 Cu    0.00129    0.00008   -0.00382
 30 Cu    0.00493   -0.00080   -0.00706
 31 Cu   -0.00222   -0.00124    0.01517
 32 Cu   -0.00129   -0.00923   -0.01289
 33 Cu    0.00262    0.01279    0.02567
 34 Cu    0.00329    0.01573    0.02074
 35 Cu   -0.00581   -0.00267   -0.01464
 36 Cu   -0.00060    0.00855    0.00647
 37 Cu   -0.00142   -0.00427    0.00101
 38 Cu   -0.00048   -0.00580   -0.00575
 39 Cu   -0.00638    0.00965   -0.00039
 40 Cu    0.00196   -0.00293   -0.02695
 41 Cu    0.00049    0.00437   -0.00662
 42 Cu    0.00283    0.00149   -0.00748
 43 Cu    0.00829   -0.00375   -0.01826
 44 Cu    0.00116    0.00107    0.00957
 45 Cu   -0.00893    0.01479    0.01180
 46 Cu    0.00934    0.01631    0.00762
 47 Cu   -0.00055   -0.00323   -0.01785
 48 Cu   -0.00001   -0.00129   -0.00776
 49 Cu   -0.00984   -0.01642   -0.00836
 50 Cu    0.00003   -0.00344    0.00882
 51 Cu   -0.00778    0.00422    0.01597
 52 Cu    0.00178   -0.00948   -0.00466
 53 Cu    0.00000    0.00489    0.00774
 54 Cu   -0.00123   -0.01209   -0.02472
 55 Cu    0.00615    0.00255    0.01444
 56 Cu   -0.00133   -0.01120   -0.00159
 57 Cu   -0.00528    0.00025    0.00628
 58 Cu    0.00097    0.00086   -0.02665
 59 Cu   -0.00049   -0.01210   -0.00164
 60 Cu    0.00154    0.00266    0.02473
 61 Cu   -0.01034    0.01291   -0.00710
 62 Cu    0.00134   -0.00085    0.00865
 63 Cu   -0.00565    0.00051   -0.00183
 64 Cu   -0.00512    0.01354    0.01885
 65 Cu    0.00746   -0.00950   -0.01435
 66 Cu    0.00743    0.00710   -0.00020
 67 Cu    0.00248    0.00236   -0.00445
 68 Cu   -0.00252    0.01642   -0.00017
 69 Cu   -0.00974   -0.00506   -0.01081
 70 Cu    0.00007   -0.00167    0.00696
 71 Cu    0.00030    0.01421   -0.00541
 72 Cl   -0.00351   -0.00960    0.01671
 73 Cl    0.00355    0.00959   -0.01784