User:   thorkong@node051.cluster
Date:   Tue Oct 18 17:41:43 2022
Arch:   x86_64
Pid:    44237
Python: 3.10.5
gpaw:   /groups/kemi/thorkong/miniconda3/envs/gpaw22/lib/python3.10/site-packages/gpaw
_gpaw:  /groups/kemi/thorkong/miniconda3/envs/gpaw22/lib/python3.10/site-packages/
        _gpaw.cpython-310-x86_64-linux-gnu.so
ase:    /groups/kemi/thorkong/miniconda3/envs/gpaw22/lib/python3.10/site-packages/ase (version 3.22.1)
numpy:  /groups/kemi/thorkong/miniconda3/envs/gpaw22/lib/python3.10/site-packages/numpy (version 1.23.0)
scipy:  /groups/kemi/thorkong/miniconda3/envs/gpaw22/lib/python3.10/site-packages/scipy (version 1.8.1)
units:  Angstrom and eV
cores: 32
OpenMP: True
OMP_NUM_THREADS: 1

Input parameters:
  basis: dzp
  kpts: [4 4 1]
  mode: {ecut: 600.0,
         name: pw}
  xc: BEEF-vdW

System changes: positions, numbers, cell, pbc, initial_charges, initial_magmoms

Initialize ...

Cu-setup:
  name: Copper
  id: f1c4d45d90492f1bbfdcb091e8418fdf
  Z: 29.0
  valence: 11
  core: 18
  charge: 0.0
  file: /groups/kemi/thorkong/miniconda3/envs/gpaw22/share/gpaw/Cu.PBE.gz
  compensation charges: gauss, rc=0.33, lmax=2
  cutoffs: 2.06(filt), 2.43(core),
  valence states:
                energy  radius
    4s(1.00)    -4.609   1.164
    4p(0.00)    -0.698   1.164
    3d(10.00)    -5.039   1.058
    *s          22.603   1.164
    *p          26.513   1.164
    *d          22.172   1.058

  LCAO basis set for Cu:
    Name: dzp
    File: /groups/kemi/thorkong/miniconda3/envs/gpaw22/share/gpaw/Cu.dzp.basis.gz
    Number of radial functions: 5
    Number of spherical harmonics: 15
      l=0, rc=8.9688 Bohr: 4s-sz confined orbital
      l=2, rc=5.1719 Bohr: 3d-sz confined orbital
      l=0, rc=5.3281 Bohr: 4s-dz split-valence wave
      l=2, rc=3.1406 Bohr: 3d-dz split-valence wave
      l=1, rc=8.9688 Bohr: p-type Gaussian polarization

Cl-setup:
  name: Chlorine
  id: 726897f06f34e53cf8e33b5885a02604
  Z: 17.0
  valence: 7
  core: 10
  charge: 0.0
  file: /groups/kemi/thorkong/miniconda3/envs/gpaw22/share/gpaw/Cl.PBE.gz
  compensation charges: gauss, rc=0.25, lmax=2
  cutoffs: 1.40(filt), 1.49(core),
  valence states:
                energy  radius
    3s(2.00)   -20.689   0.794
    3p(5.00)    -8.594   0.794
    *s           6.523   0.794
    *p          18.617   0.794
    *d           0.000   0.794

  LCAO basis set for Cl:
    Name: dzp
    File: /groups/kemi/thorkong/miniconda3/envs/gpaw22/share/gpaw/Cl.dzp.basis.gz
    Number of radial functions: 5
    Number of spherical harmonics: 13
      l=0, rc=5.1719 Bohr: 3s-sz confined orbital
      l=1, rc=6.2656 Bohr: 3p-sz confined orbital
      l=0, rc=2.8281 Bohr: 3s-dz split-valence wave
      l=1, rc=3.5156 Bohr: 3p-dz split-valence wave
      l=2, rc=6.2656 Bohr: d-type Gaussian polarization

Reference energy: -3316874.228935

Spin-paired calculation

Convergence criteria:
 Maximum [total energy] change in last 3 cyles: 0.0005 eV / electron
 Maximum integral of absolute [dens]ity change: 0.0001 electrons / valence electron
 Maximum integral of absolute [eigenst]ate change: 4e-08 eV^2 / valence electron
 Maximum number of scf [iter]ations: 333
 (Square brackets indicate name in SCF output, whereas a 'c' in
 the SCF output indicates the quantity has converged.)

Symmetries present (total): 1

  ( 1  0  0)
  ( 0  1  0)
  ( 0  0  1)

16 k-points: 4 x 4 x 1 Monkhorst-Pack grid
8 k-points in the irreducible part of the Brillouin zone
       k-points in crystal coordinates                weights
   0:     0.12500000   -0.37500000    0.00000000          2/16
   1:     0.12500000   -0.12500000    0.00000000          2/16
   2:     0.12500000    0.12500000    0.00000000          2/16
   3:     0.12500000    0.37500000    0.00000000          2/16
   4:     0.37500000   -0.37500000    0.00000000          2/16
   5:     0.37500000   -0.12500000    0.00000000          2/16
   6:     0.37500000    0.12500000    0.00000000          2/16
   7:     0.37500000    0.37500000    0.00000000          2/16

Wave functions: Plane wave expansion
  Cutoff energy: 600.000 eV
  Number of coefficients (min, max): 66642, 66743
  Pulay-stress correction: 0.000000 eV/Ang^3 (de/decut=0.000000)
  Using FFTW library
  ScaLapack parameters: grid=2x2, blocksize=64
  Wavefunction extrapolation:
    Improved wavefunction reuse through dual PAW basis

Occupation numbers: Fermi-Dirac: width=0.1000 eV

Eigensolver
   Davidson(niter=2)

Densities:
  Coarse grid: 45*42*196 grid
  Fine grid: 90*84*392 grid
  Total Charge: 0.000000

Density mixing:
  Method: separate
  Backend: pulay
  Linear mixing parameter: 0.05
  Mixing with 5 old densities
  Damping of long wave oscillations: 50

Hamiltonian:
  XC and Coulomb potentials evaluated on a 90*84*392 grid
  Using the BEEF-vdW Exchange-Correlation functional
  External potential:
    NoExternalPotential

XC parameters: BEEF-vdW with 2 nearest neighbor stencil

Total number of cores used: 32
Parallelization over k-points: 8
Domain decomposition: 1 x 1 x 4
                      2 x 2 x 8 (xc only)

Number of atoms: 78
Number of atomic orbitals: 1158
Number of bands in calculation: 505
Number of valence electrons: 834
Bands to converge: occupied

... initialized

Initializing position-dependent things.

Density initialized from atomic densities
Creating initial wave functions:
  505 bands from LCAO basis set

 |    |    Cl      Cl    |
 |    |        Cu        |
 |Cl  | Cu   Cu    CuCu  |
 |  CuCu   CuCu  CuCu    |
 |    |  Cu  CuCu  CuCu  |
 |Cu  Cu   CCu   CuCu    |
 |  Cu|  Cu  CuCu  CuCu  |
 |Cu  Cu    Cu     Cu    |
 |  Cu|  CuCuCuCuCu  Cu  |
 |Cu  |                  |
 |  CuCu CuCCu CuCuCuCu  |
 |    |      Cu    Cu    |
 |Cu  |       Cu         |
 |  CuCu CuCCu CuCuCuCu  |
 |    |      Cu    Cu    |
 |CuCuCu CCuCu   CuCu    |
 |Cu  |             Cl   |

Positions:
   0 Cu     2.914092   -0.020556    9.715385    ( 0.0000,  0.0000,  0.0000)
   1 Cu     1.610260    1.843395   11.290879    ( 0.0000,  0.0000,  0.0000)
   2 Cu     4.192448    1.827104   11.306907    ( 0.0000,  0.0000,  0.0000)
   3 Cu     0.263269    0.007681   10.074440    ( 0.0000,  0.0000,  0.0000)
   4 Cu     0.272008    0.001195   12.604226    ( 0.0000,  0.0000,  0.0000)
   5 Cu     4.202171    1.849359   13.916210    ( 0.0000,  0.0000,  0.0000)
   6 Cu     1.588229    1.838173   13.923500    ( 0.0000,  0.0000,  0.0000)
   7 Cu     2.890910   -0.000113   12.528158    ( 0.0000,  0.0000,  0.0000)
   8 Cu     2.897462   -0.000715   15.205764    ( 0.0000,  0.0000,  0.0000)
   9 Cu     1.591361    1.848939   16.543447    ( 0.0000,  0.0000,  0.0000)
  10 Cu     4.200961    1.850325   16.543748    ( 0.0000,  0.0000,  0.0000)
  11 Cu     0.275488    0.000216   15.224867    ( 0.0000,  0.0000,  0.0000)
  12 Cu     0.279800    0.001613   17.833534    ( 0.0000,  0.0000,  0.0000)
  13 Cu     4.204951    1.849781   19.182603    ( 0.0000,  0.0000,  0.0000)
  14 Cu     1.591015    1.850948   19.166009    ( 0.0000,  0.0000,  0.0000)
  15 Cu     2.897188   -0.000625   17.844493    ( 0.0000,  0.0000,  0.0000)
  16 Cu     2.895886   -0.000928   20.470057    ( 0.0000,  0.0000,  0.0000)
  17 Cu     1.589218    1.851535   21.807927    ( 0.0000,  0.0000,  0.0000)
  18 Cu     4.204491    1.851035   21.818209    ( 0.0000,  0.0000,  0.0000)
  19 Cu     0.276227    0.006909   20.437013    ( 0.0000,  0.0000,  0.0000)
  20 Cu     0.278398    0.011210   23.054221    ( 0.0000,  0.0000,  0.0000)
  21 Cu     4.240342    1.847574   24.403069    ( 0.0000,  0.0000,  0.0000)
  22 Cu     1.548392    1.846519   24.404020    ( 0.0000,  0.0000,  0.0000)
  23 Cu     2.904426   -0.021360   23.077817    ( 0.0000,  0.0000,  0.0000)
  24 Cu     2.858360    3.702491    9.988149    ( 0.0000,  0.0000,  0.0000)
  25 Cu     1.609196    5.554787   11.296890    ( 0.0000,  0.0000,  0.0000)
  26 Cu     4.195024    5.568784   11.314846    ( 0.0000,  0.0000,  0.0000)
  27 Cu     0.277253    3.697286   10.119164    ( 0.0000,  0.0000,  0.0000)
  28 Cu     0.287475    3.700946   12.634354    ( 0.0000,  0.0000,  0.0000)
  29 Cu     4.202636    5.552945   13.922507    ( 0.0000,  0.0000,  0.0000)
  30 Cu     1.587308    5.564730   13.923766    ( 0.0000,  0.0000,  0.0000)
  31 Cu     2.893542    3.700062   12.573672    ( 0.0000,  0.0000,  0.0000)
  32 Cu     2.893506    3.702152   15.209214    ( 0.0000,  0.0000,  0.0000)
  33 Cu     1.590638    5.552963   16.545081    ( 0.0000,  0.0000,  0.0000)
  34 Cu     4.201015    5.552299   16.547674    ( 0.0000,  0.0000,  0.0000)
  35 Cu     0.284383    3.701078   15.224444    ( 0.0000,  0.0000,  0.0000)
  36 Cu     0.280520    3.699770   17.832023    ( 0.0000,  0.0000,  0.0000)
  37 Cu     4.200947    5.552371   19.186102    ( 0.0000,  0.0000,  0.0000)
  38 Cu     1.585388    5.551196   19.168346    ( 0.0000,  0.0000,  0.0000)
  39 Cu     2.897418    3.701363   17.847816    ( 0.0000,  0.0000,  0.0000)
  40 Cu     2.895860    3.702571   20.475515    ( 0.0000,  0.0000,  0.0000)
  41 Cu     1.573810    5.551339   21.773827    ( 0.0000,  0.0000,  0.0000)
  42 Cu     4.207306    5.549804   21.864246    ( 0.0000,  0.0000,  0.0000)
  43 Cu     0.276392    3.694158   20.436991    ( 0.0000,  0.0000,  0.0000)
  44 Cu     0.278748    3.686928   23.056554    ( 0.0000,  0.0000,  0.0000)
  45 Cu     4.184456    5.555077   24.678886    ( 0.0000,  0.0000,  0.0000)
  46 Cu     1.538327    5.554591   24.300120    ( 0.0000,  0.0000,  0.0000)
  47 Cu     2.904910    3.720606   23.085462    ( 0.0000,  0.0000,  0.0000)
  48 Cu     6.819868    1.860585   11.336704    ( 0.0000,  0.0000,  0.0000)
  49 Cu     5.557371   -0.002106   10.089029    ( 0.0000,  0.0000,  0.0000)
  50 Cu     5.524841   -0.000092   12.617398    ( 0.0000,  0.0000,  0.0000)
  51 Cu     6.822190    1.858188   13.956113    ( 0.0000,  0.0000,  0.0000)
  52 Cu     6.817713    1.852252   16.560485    ( 0.0000,  0.0000,  0.0000)
  53 Cu     5.512804    0.000612   15.223676    ( 0.0000,  0.0000,  0.0000)
  54 Cu     5.507750   -0.001317   17.846880    ( 0.0000,  0.0000,  0.0000)
  55 Cu     6.813976    1.851043   19.167600    ( 0.0000,  0.0000,  0.0000)
  56 Cu     6.811399    1.849604   21.757357    ( 0.0000,  0.0000,  0.0000)
  57 Cu     5.510720   -0.012926   20.468309    ( 0.0000,  0.0000,  0.0000)
  58 Cu     5.487955   -0.007058   23.096571    ( 0.0000,  0.0000,  0.0000)
  59 Cu     6.820919    1.849250   24.272604    ( 0.0000,  0.0000,  0.0000)
[...]
  63 Cu     6.822256    5.544955   13.954225    ( 0.0000,  0.0000,  0.0000)
  64 Cu     6.818562    5.550193   16.558132    ( 0.0000,  0.0000,  0.0000)
  65 Cu     5.507107    3.701149   15.225953    ( 0.0000,  0.0000,  0.0000)
  66 Cu     5.506967    3.703066   17.848707    ( 0.0000,  0.0000,  0.0000)
  67 Cu     6.822849    5.551786   19.167033    ( 0.0000,  0.0000,  0.0000)
  68 Cu     6.826089    5.548990   21.787028    ( 0.0000,  0.0000,  0.0000)
  69 Cu     5.510287    3.713362   20.468519    ( 0.0000,  0.0000,  0.0000)
  70 Cu     5.487690    3.704575   23.101456    ( 0.0000,  0.0000,  0.0000)
  71 Cu     6.834994    5.547676   24.315952    ( 0.0000,  0.0000,  0.0000)
  72 Cl     0.009113    1.789715   26.225990    ( 0.0000,  0.0000,  0.0000)
[...]
 32 Cu    0.00120   -0.00620   -0.05348
 33 Cu   -0.00112   -0.00191    0.00004
 34 Cu    0.00267   -0.00166    0.01046
 35 Cu   -0.00408    0.00676    0.05277
 36 Cu   -0.00292    0.00415    0.03049
 37 Cu   -0.00490   -0.00302   -0.01736
 38 Cu    0.01333    0.00045    0.00004
 39 Cu   -0.00299    0.00086   -0.02735
 40 Cu    0.01610    0.01078   -0.02926
 41 Cu    0.01646    0.00150    0.01800
 42 Cu   -0.01525   -0.00073   -0.01466
 43 Cu    0.02295   -0.01102    0.02867
 44 Cu   -0.00937    0.16511   -0.15797
 45 Cu    0.04287   -0.00075   -0.02894
 46 Cu   -0.01219    0.00577   -0.04580
 47 Cu   -0.00632   -0.18912    0.16584
 48 Cu    0.00406   -0.16548    0.15564
 49 Cu    0.03242   -0.00142    0.07421
 50 Cu   -0.01884   -0.00160   -0.01722
 51 Cu   -0.02301    0.01036   -0.03454
 52 Cu    0.00388   -0.00520   -0.03396
 53 Cu   -0.01169    0.00000   -0.00270
 54 Cu    0.00091    0.00236   -0.00067
 55 Cu    0.00450   -0.00772   -0.05445
 56 Cu   -0.02792    0.00380    0.04887
 57 Cu   -0.03214   -0.00164    0.00492
 58 Cu    0.00100   -0.01179   -0.01744
 59 Cu   -0.31437    0.01374    0.10984
[...]
 63 Cu   -0.01806   -0.01058   -0.02191
 64 Cu   -0.00012    0.00576   -0.01224
 65 Cu    0.00439    0.00068   -0.00753
 66 Cu    0.00652   -0.00399    0.00210
 67 Cu   -0.00919    0.00429    0.02847
 68 Cu   -0.00616    0.00200    0.02138
 69 Cu   -0.03730    0.00041    0.00721
 70 Cu    0.00895    0.01161   -0.02243
 71 Cu   -0.00429   -0.00087    0.01171
 72 Cl    0.40842    0.02974   -0.01826
 73 Cl   -0.18768   -0.01287    0.13148
 74 Cl   -0.03577   -0.01609   -0.06058
 75 Cl    0.02710    0.01985    0.05678
 76 Cl   -0.04708    0.01065   -0.10903
 77 Cl    0.04058   -0.01100    0.09141

System changes: positions

[...]

Density initialized from wave functions
 |    |    Cl      Cl    |
 |    |        Cu        |
 |Cl  |CCu   Cu    CuCu  |
 |  CuCu   CCu   CuCu    |
 |    |  Cu  CuCu  CuCu  |
 |    Cu   CCu   CuCu    |
 |  Cu|  Cu  CuCu  CuCu  |
 |Cu  Cu    Cu     Cu    |
 |  Cu|CuCuCuCuCuCu  Cu  |
 |Cu  |                  |
 |  CuCu CuCCu CuCuCuCu  |
 |    |      Cu    Cu    |
 |    |       Cu         |
 |  CuCu CuCCu CuCuCuCu  |
 |    |      Cu    Cu    |
 |CuCuCu CCuCu   CuCu    |
 |Cu  |             Cl   |

[...]

Density initialized from wave functions
 |    |    Cl      Cl    |
 |    |        Cu        |
 | Cl |CCu         CuCu  |
 |  CuCu   CCu   CuCu    |
 |    |  Cu  CuCu  CuCu  |
 |    CuCu CCu   CuCu    |
 |  Cu|CuCu    Cu  CuCu  |
 |Cu  Cu    Cu     Cu    |
 |  Cu|CuCuCu  CuCu  Cu  |
 |    | Cu               |
 |  CuCu CuCCu CuCuCuCu  |
 |    |      Cu    Cu    |
 |    | Cu    Cu         |
 |  CuCu CuCCu CuCuCuCu  |
 |    |      Cu    Cu    |
 |CuCuCu ClCCu   CuCu    |
 |Cu  |             Cl   |

[...]

Density initialized from wave functions
 |    |    Cl      Cl    |
 |    |        Cu        |
 | Cl |CCu         CuCu  |
 |  CuCu  CuCu   CuCu    |
 |    |  Cu  CuCu  CuCu  |
 |    CuCu CCu   CuCu    |
 |  Cu|CuCu    Cu  CuCu  |
 |Cu  Cu    Cu     Cu    |
 |  Cu|CuCuCu  CuCu  Cu  |
 |    | Cu               |
 |  CuCu CuCCu CuCuCuCu  |
 |    |      Cu    Cu    |
 |    | Cu    Cu         |
 |  CuCu CuCCu CuCuCuCu  |
 |    |      Cu    Cu    |
 |CuCuCu ClCCu   CuCu    |
 |Cu  |             Cl   |

[...]

Density initialized from wave functions
 |    |    Cl      Cl    |
 |    |        Cu        |
 | Cl |CCu         CuCu  |
 |  CuCu  CuCu   CuCu    |
 |    |  Cu  CuCu  CuCu  |
 |    CuCu CCu   CuCu    |
 |  Cu|CuCu    Cu  CuCu  |
 |Cu  Cu    Cu     Cu    |
 |  Cu|CuCuCu  CuCu  Cu  |
 |    | Cu               |
 |  CuCu CuCCu CuCuCuCu  |
 |    |      Cu    Cu    |
 |    | Cu    Cu         |
 |  CuCu CuCCu CuCuCuCu  |
 |    |      Cu    Cu    |
 |CuCuCu ClCCu   CuCu    |
 |Cu  |             Cl   |

[...]

Density initialized from wave functions
 |    |    Cl      Cl    |
 |    |        Cu        |
 | Cl |CCu   Cu    CuCu  |
 |  CuCu  CuCu   CuCu    |
 |    |  Cu  CuCu  CuCu  |
 |    Cu   CCu   CuCu    |
 |  Cu|CuCu    Cu  CuCu  |
 |Cu  Cu    Cu     Cu    |
 |  Cu|CuCuCu  CuCu  Cu  |
 |    | Cu               |
 |  CuCu CuCCu CuCuCuCu  |
 |    |      Cu    Cu    |
 |    | Cu    Cu         |
 |  CuCu CuCCu CuCuCuCu  |
 |    |      Cu    Cu    |
 |CuCuCu ClCCu   CuCu    |
 |Cu  |             Cl   |

[...]

Density initialized from wave functions
 |    |    Cl      Cl    |
 |    |        Cu        |
 | Cl |CCu   Cu    CuCu  |
 |  CuCu  CuCu   CuCu    |
 |    |  Cu  CuCu  CuCu  |
 |    Cu   CCu   CuCu    |
 |  Cu|  Cu  CuCu  CuCu  |
 |Cu  Cu    Cu     Cu    |
 |  Cu|CuCuCu  CuCu  Cu  |
 |Cu  |                  |
 |  CuCu CuCCu CuCuCuCu  |
 |    |      Cu    Cu    |
 |    | Cu    Cu         |
 |  CuCu CuCCu CuCuCuCu  |
 |    |      Cu    Cu    |
 |CuCuCu ClCCu   CuCu    |
 |Cu  |             Cl   |

[...]

Density initialized from wave functions
 |    |    Cl      Cl    |
 |    |        Cu        |
 | Cl |CCu   Cu    CuCu  |
 |  CuCu  CuCu   CuCu    |
 |    |  Cu  CuCu  CuCu  |
 |    Cu   CCu   CuCu    |
 |  Cu|  Cu  CuCu  CuCu  |
 |Cu  Cu    Cu     Cu    |
 |  Cu|CuCuCu  CuCu  Cu  |
 |Cu  |                  |
 |  CuCu CuCCu CuCuCuCu  |
 |    |      Cu    Cu    |
 |    | Cu    Cu         |
 |  CuCu CuCCu CuCuCuCu  |
 |    |      Cu    Cu    |
 |CuCuCu ClCCu   CuCu    |
 |Cu  |             Cl   |

[...]

Density initialized from wave functions
 |    |    Cl      Cl    |
 |    |        Cu        |
 | Cl |CCu   Cu    CuCu  |
 |  CuCu  CuCu   CuCu    |
 |    |  Cu  CuCu  CuCu  |
 |    Cu   CCu   CuCu    |
 |  Cu|  Cu  CuCu  CuCu  |
 |Cu  Cu    Cu     Cu    |
 |  Cu|CuCuCuCuCuCu  Cu  |
 |Cu  |                  |
 |  CuCu CuCCu CuCuCuCu  |
 |    |      Cu    Cu    |
 |    |       Cu         |
 |  CuCu CuCCu CuCuCuCu  |
 |    |      Cu    Cu    |
 |CuCuCu ClCCu   CuCu    |
 |Cu  |             Cl   |

[...]

System changes: positions

Initializing position-dependent things.

Density initialized from wave functions
 |    |    Cl      Cl    |
 |    |        Cu        |
 | Cl |CCu   Cu    CuCu  |
 |  CuCu  CuCu   CuCu    |
 |    |  Cu  CuCu  CuCu  |
 |    Cu   CCu   CuCu    |
 |  Cu|  Cu  CuCu  CuCu  |
 |Cu  Cu    Cu     Cu    |
 |  Cu|CuCuCuCuCuCu  Cu  |
 |Cu  |                  |
 |  CuCu CuCCu CuCuCuCu  |
 |    |      Cu    Cu    |
 |    |       Cu         |
 |  CuCu CuCCu CuCuCuCu  |
 |    |      Cu    Cu    |
 |CuCuCu ClCCu   CuCu    |
 |Cu  |             Cl   |

Positions:
   0 Cu     2.910999   -0.009942    9.732679    ( 0.0000,  0.0000,  0.0000)
   1 Cu     1.610154    1.847051   11.289099    ( 0.0000,  0.0000,  0.0000)
   2 Cu     4.205809    1.845193   11.289610    ( 0.0000,  0.0000,  0.0000)
   3 Cu     0.260085    0.002259   10.082457    ( 0.0000,  0.0000,  0.0000)
   4 Cu     0.285198    0.000813   12.608856    ( 0.0000,  0.0000,  0.0000)
   5 Cu     4.204368    1.837754   13.921771    ( 0.0000,  0.0000,  0.0000)
   6 Cu     1.593243    1.838197   13.921204    ( 0.0000,  0.0000,  0.0000)
   7 Cu     2.904167   -0.002118   12.518083    ( 0.0000,  0.0000,  0.0000)
   8 Cu     2.896555   -0.000241   15.211841    ( 0.0000,  0.0000,  0.0000)
   9 Cu     1.588695    1.849383   16.543907    ( 0.0000,  0.0000,  0.0000)
  10 Cu     4.202581    1.848965   16.550677    ( 0.0000,  0.0000,  0.0000)
  11 Cu     0.276110   -0.001583   15.218210    ( 0.0000,  0.0000,  0.0000)
  12 Cu     0.279288    0.000985   17.837822    ( 0.0000,  0.0000,  0.0000)
  13 Cu     4.202320    1.850702   19.182385    ( 0.0000,  0.0000,  0.0000)
  14 Cu     1.592819    1.850779   19.168993    ( 0.0000,  0.0000,  0.0000)
  15 Cu     2.895844   -0.001327   17.843189    ( 0.0000,  0.0000,  0.0000)
  16 Cu     2.893279   -0.011961   20.467351    ( 0.0000,  0.0000,  0.0000)
  17 Cu     1.587659    1.850672   21.810394    ( 0.0000,  0.0000,  0.0000)
  18 Cu     4.193105    1.850100   21.775211    ( 0.0000,  0.0000,  0.0000)
  19 Cu     0.273919    0.015554   20.445911    ( 0.0000,  0.0000,  0.0000)
  20 Cu     0.261723   -0.002991   23.039393    ( 0.0000,  0.0000,  0.0000)
  21 Cu     4.178344    1.848783   24.298135    ( 0.0000,  0.0000,  0.0000)
  22 Cu     1.591790    1.846494   24.403799    ( 0.0000,  0.0000,  0.0000)
  23 Cu     2.887125   -0.002762   23.099965    ( 0.0000,  0.0000,  0.0000)
  24 Cu     2.913906    3.698561   10.093783    ( 0.0000,  0.0000,  0.0000)
  25 Cu     1.608246    5.547862   11.294389    ( 0.0000,  0.0000,  0.0000)
  26 Cu     4.208313    5.548791   11.294272    ( 0.0000,  0.0000,  0.0000)
  27 Cu     0.328607    3.697534    9.986649    ( 0.0000,  0.0000,  0.0000)
  28 Cu     0.296574    3.699523   12.582993    ( 0.0000,  0.0000,  0.0000)
  29 Cu     4.204656    5.562753   13.925005    ( 0.0000,  0.0000,  0.0000)
  30 Cu     1.592673    5.563287   13.922116    ( 0.0000,  0.0000,  0.0000)
  31 Cu     2.902756    3.699137   12.617011    ( 0.0000,  0.0000,  0.0000)
  32 Cu     2.896470    3.700368   15.209819    ( 0.0000,  0.0000,  0.0000)
  33 Cu     1.589012    5.552088   16.546754    ( 0.0000,  0.0000,  0.0000)
  34 Cu     4.202840    5.552700   16.549020    ( 0.0000,  0.0000,  0.0000)
  35 Cu     0.286330    3.702209   15.222290    ( 0.0000,  0.0000,  0.0000)
  36 Cu     0.279015    3.699328   17.840564    ( 0.0000,  0.0000,  0.0000)
  37 Cu     4.201997    5.551461   19.180181    ( 0.0000,  0.0000,  0.0000)
  38 Cu     1.582509    5.550727   19.173328    ( 0.0000,  0.0000,  0.0000)
  39 Cu     2.896398    3.702078   17.841862    ( 0.0000,  0.0000,  0.0000)
  40 Cu     2.893248    3.713070   20.470717    ( 0.0000,  0.0000,  0.0000)
  41 Cu     1.571492    5.551801   21.785442    ( 0.0000,  0.0000,  0.0000)
  42 Cu     4.191172    5.550493   21.873298    ( 0.0000,  0.0000,  0.0000)
  43 Cu     0.274352    3.685042   20.447672    ( 0.0000,  0.0000,  0.0000)
  44 Cu     0.261843    3.701590   23.042662    ( 0.0000,  0.0000,  0.0000)
  45 Cu     4.183895    5.550721   24.659798    ( 0.0000,  0.0000,  0.0000)
  46 Cu     1.538345    5.556278   24.315128    ( 0.0000,  0.0000,  0.0000)
  47 Cu     2.886854    3.702178   23.101523    ( 0.0000,  0.0000,  0.0000)
  48 Cu     6.832530    1.845896   11.348861    ( 0.0000,  0.0000,  0.0000)
  49 Cu     5.555062   -0.005179   10.078604    ( 0.0000,  0.0000,  0.0000)
  50 Cu     5.523718   -0.001201   12.606943    ( 0.0000,  0.0000,  0.0000)
  51 Cu     6.823623    1.866255   13.943787    ( 0.0000,  0.0000,  0.0000)
  52 Cu     6.820155    1.851914   16.550423    ( 0.0000,  0.0000,  0.0000)
  53 Cu     5.516324    0.000403   15.218638    ( 0.0000,  0.0000,  0.0000)
  54 Cu     5.510155   -0.001066   17.844641    ( 0.0000,  0.0000,  0.0000)
  55 Cu     6.812684    1.848966   19.168296    ( 0.0000,  0.0000,  0.0000)
  56 Cu     6.799413    1.849512   21.806996    ( 0.0000,  0.0000,  0.0000)
  57 Cu     5.505034   -0.012337   20.468987    ( 0.0000,  0.0000,  0.0000)
  58 Cu     5.484197   -0.001193   23.097942    ( 0.0000,  0.0000,  0.0000)
  59 Cu     6.763184    1.850846   24.402798    ( 0.0000,  0.0000,  0.0000)
[...]
  63 Cu     6.824034    5.535655   13.945015    ( 0.0000,  0.0000,  0.0000)
  64 Cu     6.819966    5.550074   16.553083    ( 0.0000,  0.0000,  0.0000)
  65 Cu     5.505941    3.700420   15.222821    ( 0.0000,  0.0000,  0.0000)
  66 Cu     5.510223    3.701965   17.847531    ( 0.0000,  0.0000,  0.0000)
  67 Cu     6.822833    5.552803   19.172604    ( 0.0000,  0.0000,  0.0000)
  68 Cu     6.810138    5.549700   21.781991    ( 0.0000,  0.0000,  0.0000)
  69 Cu     5.504792    3.712461   20.469686    ( 0.0000,  0.0000,  0.0000)
  70 Cu     5.484784    3.699570   23.099898    ( 0.0000,  0.0000,  0.0000)
  71 Cu     6.832990    5.548481   24.307865    ( 0.0000,  0.0000,  0.0000)
  72 Cl     0.252453    1.823760   26.234223    ( 0.0000,  0.0000,  0.0000)
  73 Cl     6.837702    3.653100    8.156792    ( 0.0000,  0.0000,  0.0000)
  74 Cl     5.920624    5.605371   26.310259    ( 0.0000,  0.0000,  0.0000)
  75 Cl     1.174867   -0.143427    8.084672    ( 0.0000,  0.0000,  0.0000)
  76 Cl     4.647163   -0.001421    8.072718    ( 0.0000,  0.0000,  0.0000)
  77 Cl     2.448036    5.464956   26.317515    ( 0.0000,  0.0000,  0.0000)

Unit cell:
           periodic     x           y           z      points  spacing
  1. axis:    yes    7.851007    0.000000    0.000000    45     0.1745
  2. axis:    yes    0.000000    7.402000    0.000000    42     0.1762
  3. axis:    yes    0.000000    0.000000   34.393512   196     0.1755

  Lengths:   7.851007   7.402000  34.393512
  Angles:   90.000000  90.000000  90.000000

Effective grid spacing dv^(1/3) = 0.1754

     iter     time        total  log10-change:
                         energy  eigst   dens
iter:   1 21:53:43 -5675.301474  -4.90
iter:   2 21:55:01 -5675.312982  -4.97  -3.61
iter:   3 21:56:19 -5675.298724c -5.40  -3.27
iter:   4 21:57:37 -5675.298488c -6.12  -4.06c
iter:   5 21:58:56 -5675.298481c -6.61  -4.31c
iter:   6 22:00:14 -5675.298443c -7.09  -4.51c
iter:   7 22:01:34 -5675.298433c -7.40  -4.55c
iter:   8 22:02:52 -5675.298439c -8.18c -4.73c

Converged after 8 iterations.

Dipole moment: (-84.494834, 11.587197, 0.001175) |e|*Ang

Energy contributions relative to reference atoms: (reference = -3316874.228935)

Kinetic:       +543.801357
Potential:     -603.728573
External:        +0.000000
XC:            -5614.154313
Entropy (-ST):   -0.705861
Local:           -0.863981
Free energy:   -5675.651370
Extrapolated:  -5675.298439

Showing only first 2 kpts
 Kpt  Band  Eigenvalues  Occupancy
  0   415      0.33267    1.13779
  0   416      0.37139    0.94515
  0   417      0.47272    0.49086
  0   418      0.50598    0.37823

  1   415     -0.04776    1.96680
  1   416      0.07120    1.89490
  1   417      0.08470    1.88062
  1   418      0.25403    1.48681

Fermi level: 0.36041

No gap

Forces in eV/Ang:
  0 Cu   -0.00143    0.00095    0.00019
  1 Cu    0.00028   -0.00123   -0.00392
  2 Cu   -0.00125   -0.00099    0.00083
  3 Cu   -0.00091   -0.00030   -0.00754
  4 Cu   -0.00066   -0.00042   -0.00160
  5 Cu    0.00118    0.00153   -0.00184
  6 Cu    0.00263    0.00058   -0.00167
  7 Cu   -0.00094   -0.00019   -0.00222
  8 Cu    0.00206    0.00029   -0.00302
  9 Cu   -0.00034    0.00026   -0.00328
 10 Cu    0.00104   -0.00003   -0.00100
 11 Cu    0.00411   -0.00067   -0.00041
 12 Cu    0.00045   -0.00097   -0.00263
 13 Cu   -0.00207    0.00052   -0.00049
 14 Cu   -0.00199    0.00004   -0.00021
 15 Cu   -0.00004   -0.00032   -0.00045
 16 Cu   -0.00181    0.00186    0.00245
 17 Cu   -0.00239   -0.00013    0.00119
 18 Cu   -0.00143   -0.00008   -0.00119
 19 Cu   -0.00238   -0.00045   -0.00131
 20 Cu   -0.00450   -0.00029    0.00309
 21 Cu    0.01178   -0.00021    0.00615
 22 Cu    0.00313    0.00029   -0.00650
 23 Cu   -0.00051   -0.00021   -0.00264
 24 Cu   -0.00917   -0.00003   -0.00924
 25 Cu   -0.00058    0.00092   -0.00431
 26 Cu   -0.00059    0.00061    0.00021
 27 Cu   -0.00557   -0.00018   -0.00476
 28 Cu   -0.00038   -0.00022   -0.00249
 29 Cu    0.00125   -0.00204   -0.00307
 30 Cu    0.00253   -0.00117   -0.00159
 31 Cu    0.00252   -0.00028    0.00003
 32 Cu    0.00214   -0.00083   -0.00096
 33 Cu    0.00185   -0.00064   -0.00288
 34 Cu    0.00084   -0.00037   -0.00222
 35 Cu    0.00107    0.00019   -0.00360
 36 Cu   -0.00105    0.00072   -0.00019
 37 Cu   -0.00188   -0.00057    0.00104
 38 Cu   -0.00033   -0.00007   -0.00131
 39 Cu   -0.00077    0.00000   -0.00176
 40 Cu   -0.00186   -0.00202    0.00073
 41 Cu   -0.00155    0.00020   -0.00147
 42 Cu    0.00219   -0.00015    0.00352
 43 Cu   -0.00207    0.00024    0.00033
 44 Cu   -0.00407    0.00039    0.00305
 45 Cu    0.00170   -0.00045   -0.00195
 46 Cu   -0.00737    0.00038   -0.00477
 47 Cu    0.00015    0.00029   -0.00339
 48 Cu    0.00195    0.00068   -0.00362
 49 Cu    0.00310   -0.00036   -0.00402
 50 Cu    0.00098   -0.00065    0.00138
 51 Cu    0.00102   -0.00003   -0.00073
 52 Cu    0.00116   -0.00103   -0.00120
 53 Cu   -0.00105   -0.00015    0.00038
 54 Cu   -0.00165    0.00043    0.00138
 55 Cu   -0.00186   -0.00030    0.00244
 56 Cu    0.00169   -0.00009    0.00468
 57 Cu   -0.00210    0.00014    0.00112
 58 Cu    0.00305   -0.00037    0.00338
 59 Cu    0.00927   -0.00051    0.00782
[...]
 63 Cu    0.00117   -0.00041    0.00073
 64 Cu   -0.00089    0.00046    0.00208
 65 Cu    0.00129   -0.00039   -0.00115
 66 Cu    0.00055   -0.00085    0.00192
 67 Cu   -0.00440    0.00024    0.00076
 68 Cu    0.00227    0.00004    0.00253
 69 Cu   -0.00228   -0.00020    0.00122
 70 Cu    0.00229    0.00053    0.00310
 71 Cu    0.00518    0.00037    0.00086
 72 Cl   -0.00424    0.00777    0.00110
 73 Cl    0.00238   -0.00156    0.00541
 74 Cl    0.00902   -0.00092    0.00578
 75 Cl   -0.00444    0.00508   -0.01389
 76 Cl   -0.00211    0.00777    0.00127
 77 Cl   -0.00084   -0.00221   -0.00761