User:   thorkong@node024.cluster
Date:   Fri Oct 14 17:55:33 2022
Arch:   x86_64
Pid:    110716
Python: 3.10.5
gpaw:   /groups/kemi/thorkong/miniconda3/envs/gpaw22/lib/python3.10/site-packages/gpaw
_gpaw:  /groups/kemi/thorkong/miniconda3/envs/gpaw22/lib/python3.10/site-packages/
        _gpaw.cpython-310-x86_64-linux-gnu.so
ase:    /groups/kemi/thorkong/miniconda3/envs/gpaw22/lib/python3.10/site-packages/ase (version 3.22.1)
numpy:  /groups/kemi/thorkong/miniconda3/envs/gpaw22/lib/python3.10/site-packages/numpy (version 1.23.0)
scipy:  /groups/kemi/thorkong/miniconda3/envs/gpaw22/lib/python3.10/site-packages/scipy (version 1.8.1)
units:  Angstrom and eV
cores: 32
OpenMP: True
OMP_NUM_THREADS: 1

Input parameters:
  basis: dzp
  kpts: [4 4 1]
  mode: {ecut: 600.0,
         name: pw}
  xc: BEEF-vdW

System changes: positions, numbers, cell, pbc, initial_charges, initial_magmoms

Initialize ...

Cu-setup:
  name: Copper
  id: f1c4d45d90492f1bbfdcb091e8418fdf
  Z: 29.0
  valence: 11
  core: 18
  charge: 0.0
  file: /groups/kemi/thorkong/miniconda3/envs/gpaw22/share/gpaw/Cu.PBE.gz
  compensation charges: gauss, rc=0.33, lmax=2
  cutoffs: 2.06(filt), 2.43(core),
  valence states:
                energy  radius
    4s(1.00)    -4.609   1.164
    4p(0.00)    -0.698   1.164
    3d(10.00)    -5.039   1.058
    *s          22.603   1.164
    *p          26.513   1.164
    *d          22.172   1.058

  LCAO basis set for Cu:
    Name: dzp
    File: /groups/kemi/thorkong/miniconda3/envs/gpaw22/share/gpaw/Cu.dzp.basis.gz
    Number of radial functions: 5
    Number of spherical harmonics: 15
      l=0, rc=8.9688 Bohr: 4s-sz confined orbital
      l=2, rc=5.1719 Bohr: 3d-sz confined orbital
      l=0, rc=5.3281 Bohr: 4s-dz split-valence wave
      l=2, rc=3.1406 Bohr: 3d-dz split-valence wave
      l=1, rc=8.9688 Bohr: p-type Gaussian polarization

Cl-setup:
  name: Chlorine
  id: 726897f06f34e53cf8e33b5885a02604
  Z: 17.0
  valence: 7
  core: 10
  charge: 0.0
  file: /groups/kemi/thorkong/miniconda3/envs/gpaw22/share/gpaw/Cl.PBE.gz
  compensation charges: gauss, rc=0.25, lmax=2
  cutoffs: 1.40(filt), 1.49(core),
  valence states:
                energy  radius
    3s(2.00)   -20.689   0.794
    3p(5.00)    -8.594   0.794
    *s           6.523   0.794
    *p          18.617   0.794
    *d           0.000   0.794

  LCAO basis set for Cl:
    Name: dzp
    File: /groups/kemi/thorkong/miniconda3/envs/gpaw22/share/gpaw/Cl.dzp.basis.gz
    Number of radial functions: 5
    Number of spherical harmonics: 13
      l=0, rc=5.1719 Bohr: 3s-sz confined orbital
      l=1, rc=6.2656 Bohr: 3p-sz confined orbital
      l=0, rc=2.8281 Bohr: 3s-dz split-valence wave
      l=1, rc=3.5156 Bohr: 3p-dz split-valence wave
      l=2, rc=6.2656 Bohr: d-type Gaussian polarization

Reference energy: -2456268.298212

Spin-paired calculation

Convergence criteria:
 Maximum [total energy] change in last 3 cyles: 0.0005 eV / electron
 Maximum integral of absolute [dens]ity change: 0.0001 electrons / valence electron
 Maximum integral of absolute [eigenst]ate change: 4e-08 eV^2 / valence electron
 Maximum number of scf [iter]ations: 333
 (Square brackets indicate name in SCF output, whereas a 'c' in
 the SCF output indicates the quantity has converged.)

Symmetries present (total): 1

  ( 1  0  0)
  ( 0  1  0)
  ( 0  0  1)

16 k-points: 4 x 4 x 1 Monkhorst-Pack grid
8 k-points in the irreducible part of the Brillouin zone
       k-points in crystal coordinates                weights
   0:     0.12500000   -0.37500000    0.00000000          2/16
   1:     0.12500000   -0.12500000    0.00000000          2/16
   2:     0.12500000    0.12500000    0.00000000          2/16
   3:     0.12500000    0.37500000    0.00000000          2/16
   4:     0.37500000   -0.37500000    0.00000000          2/16
   5:     0.37500000   -0.12500000    0.00000000          2/16
   6:     0.37500000    0.12500000    0.00000000          2/16
   7:     0.37500000    0.37500000    0.00000000          2/16

Wave functions: Plane wave expansion
  Cutoff energy: 600.000 eV
  Number of coefficients (min, max): 63070, 63184
  Pulay-stress correction: 0.000000 eV/Ang^3 (de/decut=0.000000)
  Using FFTW library
  ScaLapack parameters: grid=2x2, blocksize=64
  Wavefunction extrapolation:
    Improved wavefunction reuse through dual PAW basis

Occupation numbers: Fermi-Dirac: width=0.1000 eV

Eigensolver
   Davidson(niter=2)

Densities:
  Coarse grid: 45*48*175 grid
  Fine grid: 90*96*350 grid
  Total Charge: 0.000000

Density mixing:
  Method: separate
  Backend: pulay
  Linear mixing parameter: 0.05
  Mixing with 5 old densities
  Damping of long wave oscillations: 50

Hamiltonian:
  XC and Coulomb potentials evaluated on a 90*96*350 grid
  Using the BEEF-vdW Exchange-Correlation functional
  External potential:
    NoExternalPotential

XC parameters: BEEF-vdW with 2 nearest neighbor stencil

Total number of cores used: 32
Parallelization over k-points: 8
Domain decomposition: 1 x 1 x 4
                      2 x 2 x 8 (xc only)

Number of atoms: 56
Number of atomic orbitals: 836
Number of bands in calculation: 369
Number of valence electrons: 608
Bands to converge: occupied

... initialized

Initializing position-dependent things.

Density initialized from atomic densities
Creating initial wave functions:
  369 bands from LCAO basis set

                Cl
           Cu    Cu     Cu
               Cu    Cu     Cu
         Cu    Cu     Cu
       Cu    CCu    Cu    Cu

           Cu    CCu    Cu
         Cu    Cu    CCu    Cu

       Cu    CCu    Cu    Cu
           Cu    CCu    Cu

         Cu    Cu    CCu    Cu
             Cu     Cu    Cu
       Cu     Cu    Cu
           Cu     Cu    Cu
                   Cl

Positions:
   0 Cu     1.849141    1.804104    9.973214    ( 0.0000,  0.0000,  0.0000)
   1 Cu     0.589906    0.539144   11.822139    ( 0.0000,  0.0000,  0.0000)
   2 Cu     3.193607    0.541195   11.823220    ( 0.0000,  0.0000,  0.0000)
   3 Cu     1.879074    1.829371   13.700132    ( 0.0000,  0.0000,  0.0000)
   4 Cu     0.574142    0.538565   15.578219    ( 0.0000,  0.0000,  0.0000)
   5 Cu     3.194989    0.520854   15.554579    ( 0.0000,  0.0000,  0.0000)
   6 Cu     1.901027    1.847123   17.429401    ( 0.0000,  0.0000,  0.0000)
   7 Cu     0.575341    0.549479   19.224371    ( 0.0000,  0.0000,  0.0000)
   8 Cu     3.192150    0.526162   19.222114    ( 0.0000,  0.0000,  0.0000)
   9 Cu     0.591416    3.143986   11.828224    ( 0.0000,  0.0000,  0.0000)
  10 Cu     0.573023    3.146363   15.561288    ( 0.0000,  0.0000,  0.0000)
  11 Cu     0.576316    3.151102   19.218489    ( 0.0000,  0.0000,  0.0000)
  12 Cu     7.115674    1.843091   10.031774    ( 0.0000,  0.0000,  0.0000)
  13 Cu     5.789611    0.538041   11.819093    ( 0.0000,  0.0000,  0.0000)
  14 Cu     7.115635    1.832588   13.693859    ( 0.0000,  0.0000,  0.0000)
  15 Cu     5.806439    0.506474   15.573125    ( 0.0000,  0.0000,  0.0000)
  16 Cu     7.094937    1.845892   17.431319    ( 0.0000,  0.0000,  0.0000)
  17 Cu     5.806086    0.501726   19.224816    ( 0.0000,  0.0000,  0.0000)
  18 Cu     4.534695    1.794604    9.969156    ( 0.0000,  0.0000,  0.0000)
  19 Cu     4.534044    4.481657    9.969426    ( 0.0000,  0.0000,  0.0000)
  20 Cu     3.193510    3.141629   11.856950    ( 0.0000,  0.0000,  0.0000)
  21 Cu     5.789158    3.140301   11.825416    ( 0.0000,  0.0000,  0.0000)
  22 Cu     4.505998    1.825024   13.707829    ( 0.0000,  0.0000,  0.0000)
  23 Cu     4.502212    4.454489   13.699932    ( 0.0000,  0.0000,  0.0000)
  24 Cu     3.189100    3.139426   15.550606    ( 0.0000,  0.0000,  0.0000)
  25 Cu     5.812004    3.138836   15.547737    ( 0.0000,  0.0000,  0.0000)
  26 Cu     4.502562    1.849378   17.429205    ( 0.0000,  0.0000,  0.0000)
  27 Cu     4.497839    4.452278   17.393881    ( 0.0000,  0.0000,  0.0000)
  28 Cu     3.157372    3.112282   19.282510    ( 0.0000,  0.0000,  0.0000)
  29 Cu     5.841962    3.101284   19.284737    ( 0.0000,  0.0000,  0.0000)
  30 Cu     1.849480    4.492574    9.967097    ( 0.0000,  0.0000,  0.0000)
  31 Cu     1.885264    7.092185   10.025652    ( 0.0000,  0.0000,  0.0000)
  32 Cu     0.596305    5.748216   11.819744    ( 0.0000,  0.0000,  0.0000)
  33 Cu     3.188744    5.744786   11.821972    ( 0.0000,  0.0000,  0.0000)
  34 Cu     1.879303    4.455084   13.702752    ( 0.0000,  0.0000,  0.0000)
  35 Cu     1.884851    7.087458   13.677948    ( 0.0000,  0.0000,  0.0000)
  36 Cu     0.575711    5.761261   15.556966    ( 0.0000,  0.0000,  0.0000)
  37 Cu     3.185351    5.768840   15.542671    ( 0.0000,  0.0000,  0.0000)
  38 Cu     1.902446    4.453618   17.425824    ( 0.0000,  0.0000,  0.0000)
  39 Cu     1.901924    7.055660   17.431979    ( 0.0000,  0.0000,  0.0000)
  40 Cu     0.575706    5.750897   19.218970    ( 0.0000,  0.0000,  0.0000)
  41 Cu     3.156787    5.799230   19.282734    ( 0.0000,  0.0000,  0.0000)
  42 Cu     7.115061    4.442850   10.032239    ( 0.0000,  0.0000,  0.0000)
  43 Cu     7.115969    7.044385   10.026132    ( 0.0000,  0.0000,  0.0000)
  44 Cu     5.790516    5.746962   11.821770    ( 0.0000,  0.0000,  0.0000)
  45 Cu     7.118367    4.447594   13.689514    ( 0.0000,  0.0000,  0.0000)
  46 Cu     7.117247    7.055404   13.672864    ( 0.0000,  0.0000,  0.0000)
  47 Cu     5.812239    5.764537   15.550441    ( 0.0000,  0.0000,  0.0000)
  48 Cu     7.099730    4.449940   17.422923    ( 0.0000,  0.0000,  0.0000)
  49 Cu     7.101256    7.054605   17.428973    ( 0.0000,  0.0000,  0.0000)
  50 Cu     5.842219    5.789749   19.278687    ( 0.0000,  0.0000,  0.0000)
  51 Cu     4.499179    7.067738   10.028596    ( 0.0000,  0.0000,  0.0000)
  52 Cu     4.496322    7.073117   13.696147    ( 0.0000,  0.0000,  0.0000)
  53 Cu     4.497771    7.052458   17.427942    ( 0.0000,  0.0000,  0.0000)
  54 Cl     3.121088    4.446522   21.003507    ( 0.0000,  0.0000,  0.0000)
  55 Cl     4.570308    3.165024    8.248828    ( 0.0000,  0.0000,  0.0000)

Unit cell:
           periodic     x           y           z      points  spacing
  1. axis:    yes    7.851007    0.000000    0.000000    45     0.1655
  2. axis:    yes    2.617002    7.851007    0.000000    48     0.1636
  3. axis:    yes    0.000000    0.000000   30.683867   175     0.1753

  Lengths:   7.851007   8.275688  30.683867
  Angles:   90.000000  90.000000  71.565053

Effective grid spacing dv^(1/3) = 0.1710

     iter     time        total  log10-change:
                         energy  eigst   dens
iter:   1 18:00:22 -4196.125829
iter:   2 18:01:24 -4178.972896  -1.23  -1.18
iter:   3 18:02:38 -4168.803970  -1.45  -1.28
iter:   4 18:03:33 -4161.751240  -1.25  -1.39
iter:   5 18:04:42 -4161.661803  -1.92  -1.62
iter:   6 18:05:41 -4164.872645  -1.61  -1.75
iter:   7 18:06:34 -4161.881171  -2.53  -1.87
iter:   8 18:07:21 -4160.127239  -2.16  -2.08
iter:   9 18:08:18 -4160.023250  -3.72  -2.38
iter:  10 18:09:08 -4159.972973c -2.80  -2.46
iter:  11 18:10:09 -4159.957996c -4.27  -2.88
iter:  12 18:10:56 -4159.931861c -3.94  -2.91
iter:  13 18:11:44 -4159.930136c -4.39  -3.04
iter:  14 18:12:38 -4159.928705c -4.97  -3.16
iter:  15 18:13:29 -4159.927719c -5.44  -3.24
iter:  16 18:14:18 -4159.928448c -4.40  -3.30
iter:  17 18:15:07 -4159.927857c -5.80  -3.60
iter:  18 18:16:04 -4159.926915c -4.84  -3.65
iter:  19 18:16:53 -4159.926846c -6.13  -3.90
iter:  20 18:17:48 -4159.926790c -6.71  -3.98
iter:  21 18:18:50 -4159.926793c -6.56  -4.07c
iter:  22 18:19:48 -4159.926742c -6.49  -4.22c
iter:  23 18:20:34 -4159.926738c -7.43c -4.42c

Converged after 23 iterations.

Dipole moment: (-12.750168, -27.311551, -0.000312) |e|*Ang

Energy contributions relative to reference atoms: (reference = -2456268.298212)

Kinetic:       +409.622021
Potential:     -451.716411
External:        +0.000000
XC:            -4116.622467
Entropy (-ST):   -0.606074
Local:           -0.906844
Free energy:   -4160.229775
Extrapolated:  -4159.926738

Showing only first 2 kpts
 Kpt  Band  Eigenvalues  Occupancy
  0   302     -0.68192    1.88886
  0   303     -0.55857    1.66388
  0   304     -0.45830    1.28982
  0   305     -0.41356    1.07453

  1   302     -0.85741    1.97986
  1   303     -0.79915    1.96421
  1   304     -0.46121    1.30307
  1   305     -0.34345    0.73091

Fermi level: -0.39863

No gap

Forces in eV/Ang:
  0 Cu   -0.01886    0.10621    0.17747
  1 Cu   -0.08047   -0.06013    0.06736
  2 Cu    0.05212    0.04534   -0.04871
  3 Cu   -0.00244    0.02305    0.03802
  4 Cu    0.00155   -0.02054   -0.03937
  5 Cu   -0.02366   -0.01431    0.00970
  6 Cu   -0.01356    0.01056   -0.05354
  7 Cu    0.00364    0.02297   -0.04138
  8 Cu   -0.00510   -0.02944   -0.00427
  9 Cu   -0.01411    0.00524   -0.09250
 10 Cu   -0.01068    0.00039    0.00513
 11 Cu   -0.23397   -0.07800   -0.03051
 12 Cu    0.23420   -0.06889    0.03475
 13 Cu    0.02878   -0.02206    0.02951
 14 Cu    0.01462    0.00122   -0.02253
 15 Cu    0.02057    0.04850   -0.04371
 16 Cu    0.08971   -0.05764   -0.05512
 17 Cu   -0.00005    0.01192    0.01308
 18 Cu   -0.21119   -0.67911    0.54627
 19 Cu   -0.21695    0.81664    0.73364
 20 Cu   -0.05923    0.00370   -0.13328
 21 Cu    0.07716   -0.00066    0.23682
 22 Cu   -0.01288   -0.00042   -0.00942
 23 Cu   -0.00699   -0.00930    0.00216
 24 Cu    0.00675    0.00926   -0.00203
 25 Cu    0.00416    0.00161    0.00050
 26 Cu   -0.07456    0.02001    0.05055
 27 Cu    0.05888   -0.00393    0.13406
 28 Cu    0.21510   -0.76695   -0.66449
 29 Cu    0.02213    0.09832   -0.18769
 30 Cu   -0.02416   -0.09930    0.18899
 31 Cu   -0.00086   -0.01099   -0.01328
 32 Cu   -0.08996    0.05724    0.05375
 33 Cu    0.07502   -0.01892   -0.04979
 34 Cu   -0.00427   -0.00156    0.00074
 35 Cu   -0.02116   -0.04788    0.04517
 36 Cu   -0.01465   -0.00135    0.02369
 37 Cu    0.01281    0.00056    0.01056
 38 Cu   -0.07690    0.00023   -0.23684
 39 Cu   -0.02814    0.02302   -0.03132
 40 Cu   -0.23531    0.06766   -0.03436
 41 Cu    0.21252    0.72150   -0.60495
 42 Cu    0.23613    0.07777    0.03132
 43 Cu   -0.00313   -0.02002    0.04082
 44 Cu    0.01310   -0.01043    0.05434
 45 Cu    0.01080   -0.00019   -0.00386
 46 Cu   -0.00152    0.02094    0.04021
 47 Cu    0.00235   -0.02292   -0.03745
 48 Cu    0.01397   -0.00474    0.09168
 49 Cu    0.08010    0.05949   -0.06775
 50 Cu    0.02021   -0.10651   -0.17725
 51 Cu    0.00522    0.03294    0.00549
 52 Cu    0.02399    0.01497   -0.00769
 53 Cu   -0.05265   -0.04505    0.04691
 54 Cl   -0.00196    0.05455    1.73183
 55 Cl    0.00220   -0.15065   -1.74592

System changes: positions

[...]

Density initialized from wave functions

                Cl
           Cu    Cu     Cu
               Cu    Cu     Cu
         Cu    Cu     Cu
             Cu     Cu    Cu
       Cu     Cu    Cu
           Cu    CCu    Cu
         Cu    Cu    CCu    Cu

       Cu    CCu    Cu    Cu
           Cu    CCu    Cu
               Cu    Cu     Cu
         Cu    Cu     Cu
             Cu     Cu    Cu
       Cu     Cu    Cu
           Cu     Cu    Cu
                   Cl

[...]

                Cl
           Cu    Cu     Cu
               Cu    Cu     Cu
         Cu    Cu     Cu
       Cu    CCu    Cu    Cu

           Cu    CCu    Cu
         Cu    Cu    CCu    Cu

       Cu    CCu    Cu    Cu
           Cu    CCu    Cu

         Cu    Cu    CCu    Cu
             Cu     Cu    Cu
       Cu     Cu    Cu
           Cu     Cu    Cu
                   Cl

[...]

                Cl

          Cu     Cu    Cu
         Cu   CCu   CuCu   Cu

       Cu    CCu   CCu   Cu
          CCu    Cu    CCu

         Cu   CCu   CCu    Cu
       Cu    CCu   CCu   Cu

          CCu    Cu    CCu
         Cu   CCu   CCu    Cu

       Cu   CuCu   CCu   Cu
           Cu    Cu     Cu

                  Cl

[...]

                Cl
           Cu    Cu     Cu
               Cu    Cu     Cu
         Cu    Cu     Cu
       Cu    Cu     Cu    Cu
              Cu    Cu
           Cu    CCu    Cu
         Cu    Cu    CCu    Cu

       Cu    CCu    Cu    Cu
           Cu    CCu    Cu
               Cu    Cu
         Cu    Cu     Cu    Cu
             Cu     Cu    Cu
       Cu     Cu    Cu
           Cu     Cu    Cu
                   Cl

[...]

System changes: positions

Initializing position-dependent things.

Density initialized from wave functions

                Cl
           Cu    Cu     Cu
               Cu    Cu     Cu
         Cu    Cu     Cu
             Cu    Cu     Cu
       Cu     Cu    Cu
           Cu    CCu    Cu
         Cu    Cu    CCu    Cu

       Cu    CCu    Cu    Cu
           Cu    CCu    Cu
               Cu    Cu     Cu
         Cu     Cu    Cu
             Cu     Cu    Cu
       Cu     Cu    Cu
           Cu     Cu    Cu
                   Cl

Positions:
   0 Cu     1.851874    1.842086   10.044767    ( 0.0000,  0.0000,  0.0000)
   1 Cu     0.572048    0.518337   11.854739    ( 0.0000,  0.0000,  0.0000)
   2 Cu     3.208369    0.549454   11.826759    ( 0.0000,  0.0000,  0.0000)
   3 Cu     1.885044    1.836608   13.699605    ( 0.0000,  0.0000,  0.0000)
   4 Cu     0.579320    0.526826   15.560947    ( 0.0000,  0.0000,  0.0000)
   5 Cu     3.185437    0.522508   15.555968    ( 0.0000,  0.0000,  0.0000)
   6 Cu     1.901068    1.854575   17.424612    ( 0.0000,  0.0000,  0.0000)
   7 Cu     0.575906    0.561899   19.206760    ( 0.0000,  0.0000,  0.0000)
   8 Cu     3.188310    0.488633   19.210481    ( 0.0000,  0.0000,  0.0000)
   9 Cu     0.574574    3.144633   11.846476    ( 0.0000,  0.0000,  0.0000)
  10 Cu     0.575916    3.143785   15.552326    ( 0.0000,  0.0000,  0.0000)
  11 Cu     0.546349    3.145891   19.206137    ( 0.0000,  0.0000,  0.0000)
  12 Cu     7.147069    1.821677   10.043621    ( 0.0000,  0.0000,  0.0000)
  13 Cu     5.794000    0.540777   11.820405    ( 0.0000,  0.0000,  0.0000)
  14 Cu     7.114080    1.831917   13.694773    ( 0.0000,  0.0000,  0.0000)
  15 Cu     5.808982    0.523918   15.556714    ( 0.0000,  0.0000,  0.0000)
  16 Cu     7.113100    1.827061   17.396972    ( 0.0000,  0.0000,  0.0000)
  17 Cu     5.807880    0.526790   19.217827    ( 0.0000,  0.0000,  0.0000)
  18 Cu     4.494064    1.763231    9.932089    ( 0.0000,  0.0000,  0.0000)
  19 Cu     4.496146    4.525263    9.931071    ( 0.0000,  0.0000,  0.0000)
  20 Cu     3.207669    3.147945   11.830838    ( 0.0000,  0.0000,  0.0000)
  21 Cu     5.791432    3.139321   11.831411    ( 0.0000,  0.0000,  0.0000)
  22 Cu     4.501104    1.833097   13.705422    ( 0.0000,  0.0000,  0.0000)
  23 Cu     4.500286    4.451342   13.700374    ( 0.0000,  0.0000,  0.0000)
  24 Cu     3.191019    3.143173   15.550169    ( 0.0000,  0.0000,  0.0000)
  25 Cu     5.806714    3.142761   15.552225    ( 0.0000,  0.0000,  0.0000)
  26 Cu     4.483820    1.848780   17.430757    ( 0.0000,  0.0000,  0.0000)
  27 Cu     4.483576    4.446716   17.420218    ( 0.0000,  0.0000,  0.0000)
  28 Cu     3.195113    3.070202   19.320757    ( 0.0000,  0.0000,  0.0000)
  29 Cu     5.840799    3.127025   19.209886    ( 0.0000,  0.0000,  0.0000)
  30 Cu     1.850636    4.467419   10.041562    ( 0.0000,  0.0000,  0.0000)
  31 Cu     1.883456    7.067453   10.032493    ( 0.0000,  0.0000,  0.0000)
  32 Cu     0.578168    5.767618   11.853682    ( 0.0000,  0.0000,  0.0000)
  33 Cu     3.207330    5.746015   11.820678    ( 0.0000,  0.0000,  0.0000)
  34 Cu     1.884398    4.451712   13.698510    ( 0.0000,  0.0000,  0.0000)
  35 Cu     1.882140    7.070634   13.694193    ( 0.0000,  0.0000,  0.0000)
  36 Cu     0.577138    5.762455   15.555937    ( 0.0000,  0.0000,  0.0000)
  37 Cu     3.190200    5.761333   15.545038    ( 0.0000,  0.0000,  0.0000)
  38 Cu     1.899950    4.455283   17.419419    ( 0.0000,  0.0000,  0.0000)
  39 Cu     1.897387    7.053708   17.430112    ( 0.0000,  0.0000,  0.0000)
  40 Cu     0.544416    5.772752   19.207193    ( 0.0000,  0.0000,  0.0000)
  41 Cu     3.197353    5.832220   19.317966    ( 0.0000,  0.0000,  0.0000)
  42 Cu     7.144990    4.448863   10.045121    ( 0.0000,  0.0000,  0.0000)
  43 Cu     7.115261    7.033008   10.044024    ( 0.0000,  0.0000,  0.0000)
  44 Cu     5.790284    5.740371   11.826573    ( 0.0000,  0.0000,  0.0000)
  45 Cu     7.115409    4.450638   13.698320    ( 0.0000,  0.0000,  0.0000)
  46 Cu     7.111993    7.067752   13.689826    ( 0.0000,  0.0000,  0.0000)
  47 Cu     5.806194    5.757852   15.551058    ( 0.0000,  0.0000,  0.0000)
  48 Cu     7.116689    4.449777   17.404260    ( 0.0000,  0.0000,  0.0000)
  49 Cu     7.119110    7.076103   17.395949    ( 0.0000,  0.0000,  0.0000)
  50 Cu     5.839650    5.752596   19.206190    ( 0.0000,  0.0000,  0.0000)
  51 Cu     4.502840    7.106124   10.040718    ( 0.0000,  0.0000,  0.0000)
  52 Cu     4.505854    7.072213   13.694900    ( 0.0000,  0.0000,  0.0000)
  53 Cu     4.482985    7.045347   17.423899    ( 0.0000,  0.0000,  0.0000)
  54 Cl     3.111134    4.453599   21.202893    ( 0.0000,  0.0000,  0.0000)
  55 Cl     4.580310    3.143724    8.048163    ( 0.0000,  0.0000,  0.0000)

Unit cell:
           periodic     x           y           z      points  spacing
  1. axis:    yes    7.851007    0.000000    0.000000    45     0.1655
  2. axis:    yes    2.617002    7.851007    0.000000    48     0.1636
  3. axis:    yes    0.000000    0.000000   30.683867   175     0.1753

  Lengths:   7.851007   8.275688  30.683867
  Angles:   90.000000  90.000000  71.565053

Effective grid spacing dv^(1/3) = 0.1710

     iter     time        total  log10-change:
                         energy  eigst   dens
iter:   1 19:53:02 -4160.411920  -3.30
iter:   2 19:53:48 -4160.344643  -3.99  -2.79
iter:   3 19:54:34 -4160.342083c -4.74  -3.33
iter:   4 19:55:20 -4160.341316c -5.42  -3.49
iter:   5 19:56:05 -4160.340550c -5.01  -3.57
iter:   6 19:56:52 -4160.340245c -5.92  -3.91
iter:   7 19:57:38 -4160.340349c -5.77  -4.03c
iter:   8 19:58:36 -4160.340336c -6.92  -4.20c
iter:   9 19:59:45 -4160.340255c -5.99  -4.32c
iter:  10 20:00:33 -4160.340228c -7.22  -4.54c
iter:  11 20:01:20 -4160.340215c -7.63c -4.61c

Converged after 11 iterations.

Dipole moment: (-12.735466, -27.211721, 0.000589) |e|*Ang

Energy contributions relative to reference atoms: (reference = -2456268.298212)

Kinetic:       +398.139543
Potential:     -442.231853
External:        +0.000000
XC:            -4115.130598
Entropy (-ST):   -0.604959
Local:           -0.814828
Free energy:   -4160.642694
Extrapolated:  -4160.340215

Showing only first 2 kpts
 Kpt  Band  Eigenvalues  Occupancy
  0   302     -0.83147    1.87724
  0   303     -0.72431    1.67935
  0   304     -0.59954    1.20124
  0   305     -0.56308    1.02174

  1   302     -1.01672    1.97969
  1   303     -0.96444    1.96599
  1   304     -0.66390    1.48219
  1   305     -0.52222    0.81944

Fermi level: -0.55873

No gap

Forces in eV/Ang:
  0 Cu    0.00267    0.00552    0.00118
  1 Cu   -0.00288   -0.00358    0.00223
  2 Cu   -0.00032   -0.00001   -0.00260
  3 Cu   -0.00134   -0.00042    0.00079
  4 Cu    0.00056   -0.00187   -0.00500
  5 Cu   -0.00068   -0.00051    0.00227
  6 Cu   -0.00365   -0.00348   -0.00609
  7 Cu   -0.00347    0.00870    0.01024
  8 Cu    0.00224   -0.00939    0.00783
  9 Cu   -0.00556   -0.00158    0.00032
 10 Cu   -0.00314    0.00306   -0.00407
 11 Cu   -0.00752    0.00110    0.00599
 12 Cu    0.00560   -0.00091   -0.00439
 13 Cu    0.00218    0.00049    0.00333
 14 Cu    0.00346    0.00488    0.00307
 15 Cu    0.00254   -0.00062   -0.00214
 16 Cu    0.00566   -0.00113   -0.00472
 17 Cu   -0.00020   -0.00059   -0.00127
 18 Cu   -0.00766    0.00105   -0.00840
 19 Cu   -0.00775    0.00094   -0.01590
 20 Cu   -0.00250   -0.00171   -0.01207
 21 Cu   -0.00150    0.00111    0.00858
 22 Cu   -0.00424    0.00010   -0.00075
 23 Cu   -0.00296   -0.00493   -0.00024
 24 Cu    0.00313    0.00510   -0.00111
 25 Cu    0.00111    0.00129    0.00328
 26 Cu   -0.00022    0.00204   -0.00347
 27 Cu    0.00324    0.00133    0.01098
 28 Cu    0.00786   -0.00159    0.01383
 29 Cu   -0.00266    0.00943   -0.00187
 30 Cu    0.00293   -0.00927    0.00001
 31 Cu   -0.00018    0.00145    0.00079
 32 Cu   -0.00587    0.00149    0.00372
 33 Cu   -0.00016   -0.00143    0.00274
 34 Cu   -0.00093   -0.00106   -0.00517
 35 Cu   -0.00262    0.00130    0.00062
 36 Cu   -0.00367   -0.00442   -0.00487
 37 Cu    0.00436    0.00024   -0.00069
 38 Cu    0.00103   -0.00142   -0.00994
 39 Cu   -0.00282    0.00040   -0.00435
 40 Cu   -0.00597    0.00149    0.00395
 41 Cu    0.00767   -0.00264    0.00937
 42 Cu    0.00726   -0.00121   -0.00707
 43 Cu    0.00337   -0.00825   -0.01060
 44 Cu    0.00408    0.00363    0.00539
 45 Cu    0.00266   -0.00258    0.00250
 46 Cu   -0.00067    0.00243    0.00331
 47 Cu    0.00131    0.00082   -0.00270
 48 Cu    0.00532    0.00186   -0.00073
 49 Cu    0.00288    0.00407   -0.00350
 50 Cu   -0.00249   -0.00556   -0.00187
 51 Cu   -0.00196    0.01026   -0.00932
 52 Cu    0.00071    0.00081   -0.00388
 53 Cu    0.00082    0.00001    0.00192
 54 Cl   -0.00710   -0.00170    0.01226
 55 Cl    0.00705    0.00054   -0.01022