User:   thorkong@node027.cluster
Date:   Sat Oct  8 21:47:32 2022
Arch:   x86_64
Pid:    99008
Python: 3.10.5
gpaw:   /groups/kemi/thorkong/miniconda3/envs/gpaw22/lib/python3.10/site-packages/gpaw
_gpaw:  /groups/kemi/thorkong/miniconda3/envs/gpaw22/lib/python3.10/site-packages/
        _gpaw.cpython-310-x86_64-linux-gnu.so
ase:    /groups/kemi/thorkong/miniconda3/envs/gpaw22/lib/python3.10/site-packages/ase (version 3.22.1)
numpy:  /groups/kemi/thorkong/miniconda3/envs/gpaw22/lib/python3.10/site-packages/numpy (version 1.23.0)
scipy:  /groups/kemi/thorkong/miniconda3/envs/gpaw22/lib/python3.10/site-packages/scipy (version 1.8.1)
units:  Angstrom and eV
cores: 32
OpenMP: True
OMP_NUM_THREADS: 1

Input parameters:
  basis: dzp
  kpts: [4 4 1]
  mode: {ecut: 600.0,
         name: pw}
  xc: BEEF-vdW

System changes: positions, numbers, cell, pbc, initial_charges, initial_magmoms

Initialize ...

Cu-setup:
  name: Copper
  id: f1c4d45d90492f1bbfdcb091e8418fdf
  Z: 29.0
  valence: 11
  core: 18
  charge: 0.0
  file: /groups/kemi/thorkong/miniconda3/envs/gpaw22/share/gpaw/Cu.PBE.gz
  compensation charges: gauss, rc=0.33, lmax=2
  cutoffs: 2.06(filt), 2.43(core),
  valence states:
                energy  radius
    4s(1.00)    -4.609   1.164
    4p(0.00)    -0.698   1.164
    3d(10.00)    -5.039   1.058
    *s          22.603   1.164
    *p          26.513   1.164
    *d          22.172   1.058

  LCAO basis set for Cu:
    Name: dzp
    File: /groups/kemi/thorkong/miniconda3/envs/gpaw22/share/gpaw/Cu.dzp.basis.gz
    Number of radial functions: 5
    Number of spherical harmonics: 15
      l=0, rc=8.9688 Bohr: 4s-sz confined orbital
      l=2, rc=5.1719 Bohr: 3d-sz confined orbital
      l=0, rc=5.3281 Bohr: 4s-dz split-valence wave
      l=2, rc=3.1406 Bohr: 3d-dz split-valence wave
      l=1, rc=8.9688 Bohr: p-type Gaussian polarization

Cl-setup:
  name: Chlorine
  id: 726897f06f34e53cf8e33b5885a02604
  Z: 17.0
  valence: 7
  core: 10
  charge: 0.0
  file: /groups/kemi/thorkong/miniconda3/envs/gpaw22/share/gpaw/Cl.PBE.gz
  compensation charges: gauss, rc=0.25, lmax=2
  cutoffs: 1.40(filt), 1.49(core),
  valence states:
                energy  radius
    3s(2.00)   -20.689   0.794
    3p(5.00)    -8.594   0.794
    *s           6.523   0.794
    *p          18.617   0.794
    *d           0.000   0.794

  LCAO basis set for Cl:
    Name: dzp
    File: /groups/kemi/thorkong/miniconda3/envs/gpaw22/share/gpaw/Cl.dzp.basis.gz
    Number of radial functions: 5
    Number of spherical harmonics: 13
      l=0, rc=5.1719 Bohr: 3s-sz confined orbital
      l=1, rc=6.2656 Bohr: 3p-sz confined orbital
      l=0, rc=2.8281 Bohr: 3s-dz split-valence wave
      l=1, rc=3.5156 Bohr: 3p-dz split-valence wave
      l=2, rc=6.2656 Bohr: d-type Gaussian polarization

Reference energy: -2506488.095795

Spin-paired calculation

Convergence criteria:
 Maximum [total energy] change in last 3 cyles: 0.0005 eV / electron
 Maximum integral of absolute [dens]ity change: 0.0001 electrons / valence electron
 Maximum integral of absolute [eigenst]ate change: 4e-08 eV^2 / valence electron
 Maximum number of scf [iter]ations: 333
 (Square brackets indicate name in SCF output, whereas a 'c' in
 the SCF output indicates the quantity has converged.)

Symmetries present (total): 1

  ( 1  0  0)
  ( 0  1  0)
  ( 0  0  1)

16 k-points: 4 x 4 x 1 Monkhorst-Pack grid
8 k-points in the irreducible part of the Brillouin zone
       k-points in crystal coordinates                weights
   0:     0.12500000   -0.37500000    0.00000000          2/16
   1:     0.12500000   -0.12500000    0.00000000          2/16
   2:     0.12500000    0.12500000    0.00000000          2/16
   3:     0.12500000    0.37500000    0.00000000          2/16
   4:     0.37500000   -0.37500000    0.00000000          2/16
   5:     0.37500000   -0.12500000    0.00000000          2/16
   6:     0.37500000    0.12500000    0.00000000          2/16
   7:     0.37500000    0.37500000    0.00000000          2/16

Wave functions: Plane wave expansion
  Cutoff energy: 600.000 eV
  Number of coefficients (min, max): 54614, 54705
  Pulay-stress correction: 0.000000 eV/Ang^3 (de/decut=0.000000)
  Using FFTW library
  ScaLapack parameters: grid=2x2, blocksize=64
  Wavefunction extrapolation:
    Improved wavefunction reuse through dual PAW basis

Occupation numbers: Fermi-Dirac: width=0.1000 eV

Eigensolver
   Davidson(niter=2)

Densities:
  Coarse grid: 45*45*175 grid
  Fine grid: 90*90*350 grid
  Total Charge: 0.000000

Density mixing:
  Method: separate
  Backend: pulay
  Linear mixing parameter: 0.05
  Mixing with 5 old densities
  Damping of long wave oscillations: 50

Hamiltonian:
  XC and Coulomb potentials evaluated on a 90*90*350 grid
  Using the BEEF-vdW Exchange-Correlation functional
  External potential:
    NoExternalPotential

XC parameters: BEEF-vdW with 2 nearest neighbor stencil

Total number of cores used: 32
Parallelization over k-points: 8
Domain decomposition: 1 x 1 x 4
                      2 x 2 x 8 (xc only)

Number of atoms: 60
Number of atomic orbitals: 888
Number of bands in calculation: 386
Number of valence electrons: 636
Bands to converge: occupied

... initialized

Initializing position-dependent things.

Density initialized from atomic densities
Creating initial wave functions:
  386 bands from LCAO basis set

                                 Cl
                      Cl

           Cl           Cu    Cu     Cu
                   Cu     Cu    Cu
               Cu    Cu     Cu
                    Cu     Cu    Cu
                Cu    Cu    Cu
           Cu    Cu     Cu
                Cu     Cu    Cu
            Cu    Cu     Cu
       Cu     Cu    Cu  Cu    Cu     Cu
                   Cu     Cu    Cu
               Cu    Cu     Cu
                    Cu     Cu    Cu
                Cu    Cu    Cu
           Cu    Cu     Cu
                Cu     Cu    Cu
            Cu    Cu     Cu
       Cu     Cu    Cu           Cl

[...]

Positions:
   0 Cu     2.920091   -0.010942    9.968792    ( 0.0000,  0.0000,  0.0000)
   1 Cu     4.184086    2.255865    9.973610    ( 0.0000,  0.0000,  0.0000)
   2 Cu     0.258363   -0.010652    9.974142    ( 0.0000,  0.0000,  0.0000)
   3 Cu     1.588976    2.294609    9.968780    ( 0.0000,  0.0000,  0.0000)
   4 Cu     2.894934    3.021427   12.136242    ( 0.0000,  0.0000,  0.0000)
   5 Cu     1.586677    0.756280   12.119879    ( 0.0000,  0.0000,  0.0000)
   6 Cu     5.512173    3.022668   12.118925    ( 0.0000,  0.0000,  0.0000)
   7 Cu     4.202483    0.756690   12.136241    ( 0.0000,  0.0000,  0.0000)
   8 Cu     5.510935    1.512055   14.271490    ( 0.0000,  0.0000,  0.0000)
   9 Cu     6.816455    3.775704   14.272375    ( 0.0000,  0.0000,  0.0000)
  10 Cu     2.890776    1.509212   14.273636    ( 0.0000,  0.0000,  0.0000)
  11 Cu     4.203317    3.776915   14.271491    ( 0.0000,  0.0000,  0.0000)
  12 Cu     2.893159    0.000179   16.412758    ( 0.0000,  0.0000,  0.0000)
  13 Cu     4.205193    2.268091   16.412349    ( 0.0000,  0.0000,  0.0000)
  14 Cu     0.279234    0.001438   16.411784    ( 0.0000,  0.0000,  0.0000)
  15 Cu     1.585106    2.265794   16.412757    ( 0.0000,  0.0000,  0.0000)
  16 Cu     2.892535    3.022534   18.548442    ( 0.0000,  0.0000,  0.0000)
  17 Cu     1.583923    0.754682   18.560228    ( 0.0000,  0.0000,  0.0000)
  18 Cu     5.509443    3.021083   18.566077    ( 0.0000,  0.0000,  0.0000)
  19 Cu     4.202245    0.754048   18.548442    ( 0.0000,  0.0000,  0.0000)
  20 Cu     5.507298    1.482831   20.716306    ( 0.0000,  0.0000,  0.0000)
  21 Cu     6.837612    3.787855   20.711295    ( 0.0000,  0.0000,  0.0000)
  22 Cu     2.911808    1.521291   20.703014    ( 0.0000,  0.0000,  0.0000)
  23 Cu     4.176259    3.788273   20.716315    ( 0.0000,  0.0000,  0.0000)
  24 Cu     5.514436    4.560947    9.968649    ( 0.0000,  0.0000,  0.0000)
  25 Cu     2.919494    4.522095    9.976798    ( 0.0000,  0.0000,  0.0000)
  26 Cu     4.204606    5.289467   12.136377    ( 0.0000,  0.0000,  0.0000)
  27 Cu     6.819370    5.289698   12.136341    ( 0.0000,  0.0000,  0.0000)
  28 Cu     8.128333    6.043619   14.271975    ( 0.0000,  0.0000,  0.0000)
  29 Cu     5.510967    6.045016   14.272770    ( 0.0000,  0.0000,  0.0000)
  30 Cu     5.510639    4.531620   16.413244    ( 0.0000,  0.0000,  0.0000)
  31 Cu     2.892510    4.533330   16.411985    ( 0.0000,  0.0000,  0.0000)
  32 Cu     4.200120    5.286867   18.548408    ( 0.0000,  0.0000,  0.0000)
  33 Cu     6.819128    5.287056   18.548545    ( 0.0000,  0.0000,  0.0000)
  34 Cu     8.101692    6.054652   20.716178    ( 0.0000,  0.0000,  0.0000)
  35 Cu     5.507330    6.016206   20.708183    ( 0.0000,  0.0000,  0.0000)
  36 Cu     5.514406    0.027573    9.976781    ( 0.0000,  0.0000,  0.0000)
  37 Cu     6.845525    2.255438    9.968667    ( 0.0000,  0.0000,  0.0000)
  38 Cu     8.129081    3.021214   12.136342    ( 0.0000,  0.0000,  0.0000)
  39 Cu     6.821496    0.756879   12.136377    ( 0.0000,  0.0000,  0.0000)
  40 Cu     8.128993    1.510463   14.272771    ( 0.0000,  0.0000,  0.0000)
  41 Cu     9.436466    3.777867   14.271975    ( 0.0000,  0.0000,  0.0000)
  42 Cu     5.510607   -0.001344   16.411984    ( 0.0000,  0.0000,  0.0000)
  43 Cu     6.818188    2.266877   16.413245    ( 0.0000,  0.0000,  0.0000)
  44 Cu     8.126676    3.022314   18.548545    ( 0.0000,  0.0000,  0.0000)
  45 Cu     6.817011    0.754285   18.548408    ( 0.0000,  0.0000,  0.0000)
  46 Cu     8.102300    1.521610   20.708192    ( 0.0000,  0.0000,  0.0000)
  47 Cu     9.432755    3.749166   20.716168    ( 0.0000,  0.0000,  0.0000)
  48 Cu     8.109901    4.522433    9.981899    ( 0.0000,  0.0000,  0.0000)
  49 Cu     9.437696    5.289069   12.124768    ( 0.0000,  0.0000,  0.0000)
  50 Cu    10.742425    6.042363   14.272937    ( 0.0000,  0.0000,  0.0000)
  51 Cu     8.130872    4.534583   16.411100    ( 0.0000,  0.0000,  0.0000)
  52 Cu     9.434944    5.287471   18.565114    ( 0.0000,  0.0000,  0.0000)
  53 Cu    10.763340    6.054376   20.710748    ( 0.0000,  0.0000,  0.0000)
  54 Cl     5.512859    3.022958   23.057606    ( 0.0000,  0.0000,  0.0000)
  55 Cl     5.509025    3.020755    7.627159    ( 0.0000,  0.0000,  0.0000)
  56 Cl     9.439416    5.289954   23.058189    ( 0.0000,  0.0000,  0.0000)
  57 Cl     1.582480    0.753772    7.626542    ( 0.0000,  0.0000,  0.0000)
  58 Cl     9.433787    5.286718    7.640930    ( 0.0000,  0.0000,  0.0000)
  59 Cl     1.588117    0.757002   23.043987    ( 0.0000,  0.0000,  0.0000)

Unit cell:
           periodic     x           y           z      points  spacing
  1. axis:    yes    7.851007    0.000000    0.000000    45     0.1511
  2. axis:    yes    3.925503    6.799171    0.000000    45     0.1511
  3. axis:    yes    0.000000    0.000000   30.683867   175     0.1753

  Lengths:   7.851007   7.851006  30.683867
  Angles:   90.000000  90.000000  60.000001

Effective grid spacing dv^(1/3) = 0.1666

     iter     time        total  log10-change:
                         energy  eigst   dens
iter:   1 21:52:28 -4490.327376
iter:   2 21:53:14 -4486.433751  +0.65  -0.86
iter:   3 21:53:58 -4382.815400  +0.16  -0.96
iter:   4 21:54:43 -4322.666505  -1.20  -1.18
iter:   5 21:55:35 -4311.850222  -1.33  -1.41
iter:   6 21:56:29 -4311.342595  -2.05  -1.50
iter:   7 21:57:14 -4314.962650  -2.23  -1.56
iter:   8 21:57:59 -4313.702898  -1.50  -1.58
iter:   9 21:58:43 -4311.731523  -2.85  -1.76
iter:  10 21:59:31 -4310.026150  -2.28  -1.81
iter:  11 22:00:16 -4309.773573  -2.18  -1.98
iter:  12 22:01:04 -4309.045586  -2.96  -2.25
iter:  13 22:01:56 -4308.803595  -2.67  -2.48
iter:  14 22:02:50 -4308.721161  -4.11  -2.65
iter:  15 22:03:35 -4308.727938c -4.02  -2.80
iter:  16 22:04:20 -4308.713374c -4.26  -2.92
iter:  17 22:05:11 -4308.712151c -4.56  -3.04
iter:  18 22:05:56 -4308.710699c -4.97  -3.12
iter:  19 22:06:52 -4308.708521c -4.46  -3.16
iter:  20 22:07:49 -4308.707077c -5.59  -3.44
iter:  21 22:08:36 -4308.705607c -5.61  -3.59
iter:  22 22:09:28 -4308.704697c -5.60  -3.70
iter:  23 22:10:21 -4308.704480c -5.93  -3.75
iter:  24 22:11:10 -4308.704650c -5.76  -3.81
iter:  25 22:11:57 -4308.704609c -6.43  -3.89
iter:  26 22:12:43 -4308.704568c -6.91  -4.01c
iter:  27 22:13:29 -4308.704542c -7.05  -4.09c
iter:  28 22:14:15 -4308.704537c -6.83  -4.17c
iter:  29 22:15:01 -4308.704538c -7.26  -4.32c
iter:  30 22:15:57 -4308.704537c -7.33  -4.40c
iter:  31 22:16:50 -4308.704531c -7.57c -4.53c

Converged after 31 iterations.

Dipole moment: (-16.279487, -8.235015, 0.001151) |e|*Ang

Energy contributions relative to reference atoms: (reference = -2506488.095795)

Kinetic:       +386.058919
Potential:     -435.950185
External:        +0.000000
XC:            -4257.797485
Entropy (-ST):   -0.545478
Local:           -0.743042
Free energy:   -4308.977270
Extrapolated:  -4308.704531

Showing only first 2 kpts
 Kpt  Band  Eigenvalues  Occupancy
  0   316     -0.58721    1.11490
  0   317     -0.53489    0.85489
  0   318     -0.50030    0.69129
  0   319     -0.37820    0.26958

  1   316     -1.11358    1.99182
  1   317     -0.97416    1.96741
  1   318     -0.97325    1.96711
  1   319     -0.51684    0.76787

Fermi level: -0.56412

No gap

Forces in eV/Ang:
  0 Cu   -0.28577    0.16339   -0.38089
  1 Cu    0.28206    0.16288   -0.39956
  2 Cu    0.28399    0.16400   -0.39975
  3 Cu   -0.00141   -0.32905   -0.38083
  4 Cu    0.00193    0.00380   -0.23595
  5 Cu    0.00237    0.00142   -0.04931
  6 Cu    0.00243    0.00146   -0.04882
  7 Cu    0.00422   -0.00016   -0.23596
  8 Cu    0.00636    0.01621   -0.02204
  9 Cu   -0.00599   -0.00341   -0.02164
 10 Cu   -0.00338   -0.00191   -0.02510
 11 Cu    0.01717   -0.00253   -0.02203
 12 Cu   -0.01536    0.00165    0.02036
 13 Cu    0.00511    0.00299    0.02087
 14 Cu    0.00421    0.00247    0.02031
 15 Cu   -0.00629   -0.01407    0.02036
 16 Cu   -0.00061   -0.00617    0.23610
 17 Cu   -0.00267   -0.00149    0.04753
 18 Cu   -0.00289   -0.00162    0.04512
 19 Cu   -0.00567    0.00261    0.23610
 20 Cu    0.00118    0.32690    0.38158
 21 Cu   -0.28184   -0.16270    0.39917
 22 Cu   -0.27935   -0.16126    0.41120
 23 Cu    0.28362   -0.16237    0.38154
 24 Cu   -0.00132   -0.32727   -0.38203
 25 Cu   -0.28112    0.16087   -0.39314
 26 Cu   -0.00295   -0.00023   -0.23600
 27 Cu    0.00551   -0.00257   -0.23617
 28 Cu    0.01647   -0.00215   -0.02116
 29 Cu    0.00626    0.01325   -0.02545
 30 Cu   -0.00633   -0.01501    0.02120
 31 Cu   -0.01356    0.00068    0.02446
 32 Cu    0.00159    0.00243    0.23594
 33 Cu   -0.00430    0.00016    0.23588
 34 Cu    0.28518   -0.16317    0.38035
 35 Cu    0.00112    0.32340    0.39260
 36 Cu   -0.00128   -0.32375   -0.39307
 37 Cu   -0.28419    0.16258   -0.38210
 38 Cu    0.00049    0.00613   -0.23616
 39 Cu   -0.00172   -0.00237   -0.23600
 40 Cu    0.01457   -0.00114   -0.02544
 41 Cu    0.00634    0.01541   -0.02116
 42 Cu   -0.00623   -0.01202    0.02445
 43 Cu   -0.01620    0.00209    0.02121
 44 Cu   -0.00205   -0.00375    0.23588
 45 Cu    0.00286    0.00021    0.23595
 46 Cu    0.28054   -0.16065    0.39255
 47 Cu    0.00126    0.32865    0.38039
 48 Cu    0.27951    0.16142   -0.41159
 49 Cu    0.00221    0.00133   -0.05115
 50 Cu   -0.00520   -0.00295   -0.02103
 51 Cu    0.00248    0.00148    0.02424
 52 Cu   -0.00285   -0.00159    0.04568
 53 Cu   -0.28376   -0.16380    0.39939
 54 Cl   -0.00194   -0.00102   -1.72479
 55 Cl    0.00177    0.00106    1.72323
 56 Cl   -0.00244   -0.00131   -1.72450
 57 Cl    0.00229    0.00135    1.72295
 58 Cl    0.00204    0.00121    1.71019
 59 Cl   -0.00220   -0.00117   -1.71197

System changes: positions

[...]

Density initialized from wave functions

                                 Cl
                      Cl
                        Cu    Cu     Cu
           Cl
                   Cu     Cu    Cu
               Cu   CCu    CCu   Cu

               Cu     Cu     Cu
           Cu   CCu    CCu   Cu

            Cu    Cu    CCu   Cu     Cu
       Cu     Cu   CCu    Cu    Cu

               Cu   CCu    CCu   Cu
               Cu     Cu     Cu

           Cu   CCu    CCu   Cu
            Cu    Cu     Cu
                                 Cl
       Cu     Cu    Cu
                      Cl
           Cl

[...]

                                 Cl
                      Cl
                        Cu    Cu     Cu
           Cl      Cu     Cu    Cu

              Cu    CCu    CCu   Cu
               Cu            Cu
                      Cu
           Cu   CCu    CCu   Cu

[...]

               Cu   CCu    CCu   Cu
                      Cu
               Cu            Cu
           Cu   CCu    CCu    Cu

            Cu    Cu     Cu      Cl
       Cu     Cu    Cu
                      Cl
           Cl

[...]

               Cu   CCu    CCu   Cu
               Cu     Cu    Cu

           Cu   CCu    CCu   Cu

[...]

                      ClCu    Cu     Cu
           Cl      Cu     Cu    Cu

[...]

            Cu    Cu     Cu      Cl
       Cu     Cu    CuCl

           Cl

[...]

System changes: positions

Initializing position-dependent things.

Density initialized from wave functions

                                 Cl
                      Cl
                        Cu    Cu     Cu
           Cl      Cu     Cu    Cu

               Cu   CCu    CCu   Cu
               Cu           Cu
                      Cu
           Cu   CCu    CCu   Cu

            Cu    Cu    CCu   Cu     Cu
       Cu     Cu   CCu    Cu    Cu

               Cu   CCu    CCu   Cu
                      Cu
                Cu           Cu
           Cu   CCu    CCu   Cu

            Cu    Cu     Cu      Cl
       Cu     Cu    Cu
                      Cl
           Cl

Positions:
   0 Cu     2.905920   -0.001947   10.018313    ( 0.0000,  0.0000,  0.0000)
   1 Cu     4.199397    2.264832   10.016612    ( 0.0000,  0.0000,  0.0000)
   2 Cu     0.273665   -0.001691   10.016416    ( 0.0000,  0.0000,  0.0000)
   3 Cu     1.589571    2.278025   10.018305    ( 0.0000,  0.0000,  0.0000)
   4 Cu     2.898724    3.024216   12.111128    ( 0.0000,  0.0000,  0.0000)
   5 Cu     1.589258    0.757877   12.157962    ( 0.0000,  0.0000,  0.0000)
   6 Cu     5.514772    3.024272   12.158513    ( 0.0000,  0.0000,  0.0000)
   7 Cu     4.206703    0.758729   12.111128    ( 0.0000,  0.0000,  0.0000)
   8 Cu     5.514951    1.511112   14.270076    ( 0.0000,  0.0000,  0.0000)
   9 Cu     6.821778    3.778884   14.271740    ( 0.0000,  0.0000,  0.0000)
  10 Cu     2.896202    1.512452   14.271354    ( 0.0000,  0.0000,  0.0000)
  11 Cu     4.204416    3.781025   14.270079    ( 0.0000,  0.0000,  0.0000)
  12 Cu     2.890993   -0.003471   16.415444    ( 0.0000,  0.0000,  0.0000)
  13 Cu     4.199550    2.264931   16.413412    ( 0.0000,  0.0000,  0.0000)
  14 Cu     0.274283   -0.001324   16.413801    ( 0.0000,  0.0000,  0.0000)
  15 Cu     1.580779    2.265888   16.415442    ( 0.0000,  0.0000,  0.0000)
  16 Cu     2.889533    3.018036   18.573602    ( 0.0000,  0.0000,  0.0000)
  17 Cu     1.581088    0.753133   18.529373    ( 0.0000,  0.0000,  0.0000)
  18 Cu     5.506605    3.019530   18.526758    ( 0.0000,  0.0000,  0.0000)
  19 Cu     4.196779    0.753820   18.573601    ( 0.0000,  0.0000,  0.0000)
  20 Cu     5.506323    1.499500   20.666264    ( 0.0000,  0.0000,  0.0000)
  21 Cu     6.822117    3.779023   20.668229    ( 0.0000,  0.0000,  0.0000)
  22 Cu     2.896206    1.512397   20.671718    ( 0.0000,  0.0000,  0.0000)
  23 Cu     4.190110    3.779265   20.666268    ( 0.0000,  0.0000,  0.0000)
  24 Cu     5.515088    4.544185   10.018572    ( 0.0000,  0.0000,  0.0000)
  25 Cu     2.905299    4.531181   10.014962    ( 0.0000,  0.0000,  0.0000)
  26 Cu     4.205942    5.291512   12.111135    ( 0.0000,  0.0000,  0.0000)
  27 Cu     6.824614    5.289988   12.111168    ( 0.0000,  0.0000,  0.0000)
  28 Cu     8.130163    6.047277   14.269705    ( 0.0000,  0.0000,  0.0000)
  29 Cu     5.514947    6.043978   14.269715    ( 0.0000,  0.0000,  0.0000)
  30 Cu     5.506284    4.532560   16.415061    ( 0.0000,  0.0000,  0.0000)
  31 Cu     2.891166    4.529217   16.415426    ( 0.0000,  0.0000,  0.0000)
  32 Cu     4.197541    5.286642   18.573635    ( 0.0000,  0.0000,  0.0000)
  33 Cu     6.814695    5.285068   18.573644    ( 0.0000,  0.0000,  0.0000)
  34 Cu     8.115422    6.045783   20.666539    ( 0.0000,  0.0000,  0.0000)
  35 Cu     5.506348    6.032758   20.669876    ( 0.0000,  0.0000,  0.0000)
  36 Cu     5.515065    0.010924   10.014954    ( 0.0000,  0.0000,  0.0000)
  37 Cu     6.831232    2.264570   10.018579    ( 0.0000,  0.0000,  0.0000)
  38 Cu     8.131864    3.025764   12.111168    ( 0.0000,  0.0000,  0.0000)
  39 Cu     6.823849    0.757165   12.111135    ( 0.0000,  0.0000,  0.0000)
  40 Cu     8.129991    1.514588   14.269720    ( 0.0000,  0.0000,  0.0000)
  41 Cu     9.440457    3.777783   14.269700    ( 0.0000,  0.0000,  0.0000)
  42 Cu     5.506289   -0.000305   16.415425    ( 0.0000,  0.0000,  0.0000)
  43 Cu     6.816741    2.262781   16.415063    ( 0.0000,  0.0000,  0.0000)
  44 Cu     8.122668    3.019595   18.573644    ( 0.0000,  0.0000,  0.0000)
  45 Cu     6.815454    0.752285   18.573635    ( 0.0000,  0.0000,  0.0000)
  46 Cu     8.116038    1.512658   20.669879    ( 0.0000,  0.0000,  0.0000)
  47 Cu     9.431842    3.765661   20.666536    ( 0.0000,  0.0000,  0.0000)
  48 Cu     8.125311    4.531458   10.013111    ( 0.0000,  0.0000,  0.0000)
  49 Cu     9.440286    5.290669   12.155902    ( 0.0000,  0.0000,  0.0000)
  50 Cu    10.747045    6.045138   14.271356    ( 0.0000,  0.0000,  0.0000)
  51 Cu     8.125125    4.531362   16.413802    ( 0.0000,  0.0000,  0.0000)
  52 Cu     9.432117    5.285926   18.527314    ( 0.0000,  0.0000,  0.0000)
  53 Cu    10.747849    6.045545   20.668427    ( 0.0000,  0.0000,  0.0000)
  54 Cl     5.506543    3.019397   22.569392    ( 0.0000,  0.0000,  0.0000)
  55 Cl     5.515073    3.024354    8.115080    ( 0.0000,  0.0000,  0.0000)
  56 Cl     9.432098    5.285818   22.569183    ( 0.0000,  0.0000,  0.0000)
  57 Cl     1.589517    0.757934    8.115294    ( 0.0000,  0.0000,  0.0000)
  58 Cl     9.440559    5.290734    8.109981    ( 0.0000,  0.0000,  0.0000)
  59 Cl     1.581057    0.753017   22.574463    ( 0.0000,  0.0000,  0.0000)

Unit cell:
           periodic     x           y           z      points  spacing
  1. axis:    yes    7.851007    0.000000    0.000000    45     0.1511
  2. axis:    yes    3.925503    6.799171    0.000000    45     0.1511
  3. axis:    yes    0.000000    0.000000   30.683867   175     0.1753

  Lengths:   7.851007   7.851006  30.683867
  Angles:   90.000000  90.000000  60.000001

Effective grid spacing dv^(1/3) = 0.1666

     iter     time        total  log10-change:
                         energy  eigst   dens
iter:   1 00:38:06 -4311.713295  -3.29
iter:   2 00:38:50 -4311.612678  -3.72  -2.72
iter:   3 00:39:35 -4311.613597c -4.46  -3.18
iter:   4 00:40:19 -4311.601769c -4.96  -3.20
iter:   5 00:41:04 -4311.600102c -4.80  -3.43
iter:   6 00:41:50 -4311.599727c -5.41  -3.72
iter:   7 00:42:36 -4311.599984c -5.68  -3.92
iter:   8 00:43:22 -4311.599715c -6.37  -4.16c
iter:   9 00:44:16 -4311.599669c -5.77  -4.21c
iter:  10 00:45:04 -4311.599651c -7.09  -4.34c
iter:  11 00:45:57 -4311.599696c -6.73  -4.38c
iter:  12 00:47:01 -4311.599599c -6.36  -4.42c
iter:  13 00:47:58 -4311.599609c -7.34  -4.74c
iter:  14 00:48:51 -4311.599606c -8.06c -4.93c

Converged after 14 iterations.

Dipole moment: (-16.054270, -7.988602, 0.000899) |e|*Ang

Energy contributions relative to reference atoms: (reference = -2506488.095795)

Kinetic:       +438.187831
Potential:     -477.664733
External:        +0.000000
XC:            -4271.180698
Entropy (-ST):   -0.522746
Local:           -0.680632
Free energy:   -4311.860979
Extrapolated:  -4311.599606

Showing only first 2 kpts
 Kpt  Band  Eigenvalues  Occupancy
  0   316      0.22910    1.15214
  0   317      0.25432    1.02724
  0   318      0.28783    0.86060
  0   319      0.49193    0.17870

  1   316     -0.26276    1.98930
  1   317     -0.12302    1.95742
  1   318     -0.12256    1.95722
  1   319      0.37055    0.49657

Fermi level: 0.25977

No gap

Forces in eV/Ang:
  0 Cu    0.00181    0.00167   -0.00439
  1 Cu    0.00230    0.00137   -0.00351
  2 Cu    0.00268    0.00159   -0.00330
  3 Cu    0.00232    0.00080   -0.00439
  4 Cu    0.00043    0.00016   -0.00138
  5 Cu    0.00038    0.00028    0.00678
  6 Cu    0.00039    0.00028    0.00654
  7 Cu    0.00031    0.00039   -0.00138
  8 Cu   -0.00085   -0.00592    0.00323
  9 Cu    0.00405    0.00238    0.00260
 10 Cu    0.00390    0.00229    0.00331
 11 Cu   -0.00559    0.00228    0.00323
 12 Cu    0.00585   -0.00238   -0.00427
 13 Cu   -0.00449   -0.00256   -0.00359
 14 Cu   -0.00445   -0.00253   -0.00371
 15 Cu    0.00084    0.00631   -0.00427
 16 Cu   -0.00081    0.00044    0.00227
 17 Cu   -0.00053   -0.00025   -0.01070
 18 Cu   -0.00057   -0.00027   -0.00829
 19 Cu   -0.00007   -0.00084    0.00227
 20 Cu   -0.00240   -0.00097    0.00426
 21 Cu   -0.00254   -0.00144    0.00300
 22 Cu   -0.00018   -0.00007   -0.00311
 23 Cu   -0.00206   -0.00155    0.00427
 24 Cu    0.00231    0.00115   -0.00473
 25 Cu    0.00451    0.00017    0.00160
 26 Cu    0.00119    0.00024   -0.00139
 27 Cu   -0.00016    0.00077   -0.00145
 28 Cu   -0.00552    0.00225    0.00337
 29 Cu   -0.00084   -0.00576    0.00397
 30 Cu    0.00084    0.00638   -0.00412
 31 Cu    0.00577   -0.00234   -0.00487
 32 Cu   -0.00096   -0.00107    0.00220
 33 Cu   -0.00058   -0.00036    0.00219
 34 Cu   -0.00176   -0.00174    0.00392
 35 Cu   -0.00246   -0.00370   -0.00209
 36 Cu    0.00237    0.00388    0.00161
 37 Cu    0.00211    0.00149   -0.00473
 38 Cu    0.00054   -0.00043   -0.00145
 39 Cu    0.00074    0.00100   -0.00139
 40 Cu   -0.00544    0.00222    0.00397
 41 Cu   -0.00085   -0.00585    0.00337
 42 Cu    0.00083    0.00622   -0.00487
 43 Cu    0.00591   -0.00240   -0.00412
 44 Cu   -0.00065   -0.00024    0.00219
 45 Cu   -0.00145   -0.00022    0.00220
 46 Cu   -0.00445   -0.00024   -0.00208
 47 Cu   -0.00241   -0.00062    0.00391
 48 Cu   -0.00006    0.00001    0.00261
 49 Cu    0.00035    0.00026    0.00893
 50 Cu    0.00399    0.00235    0.00271
 51 Cu   -0.00435   -0.00247   -0.00431
 52 Cu   -0.00056   -0.00027   -0.00854
 53 Cu   -0.00291   -0.00165    0.00279
 54 Cl    0.00018    0.00017    0.01062
 55 Cl   -0.00034   -0.00014   -0.00757
 56 Cl    0.00021    0.00018    0.01120
 57 Cl   -0.00036   -0.00015   -0.00816
 58 Cl   -0.00039   -0.00017    0.00258
 59 Cl    0.00024    0.00019    0.00058