User:   thorkong@node025.cluster
Date:   Mon Oct 31 11:22:41 2022
Arch:   x86_64
Pid:    13250
Python: 3.10.5
gpaw:   /groups/kemi/thorkong/miniconda3/envs/gpaw22/lib/python3.10/site-packages/gpaw
_gpaw:  /groups/kemi/thorkong/miniconda3/envs/gpaw22/lib/python3.10/site-packages/
        _gpaw.cpython-310-x86_64-linux-gnu.so
ase:    /groups/kemi/thorkong/miniconda3/envs/gpaw22/lib/python3.10/site-packages/ase (version 3.22.1)
numpy:  /groups/kemi/thorkong/miniconda3/envs/gpaw22/lib/python3.10/site-packages/numpy (version 1.23.0)
scipy:  /groups/kemi/thorkong/miniconda3/envs/gpaw22/lib/python3.10/site-packages/scipy (version 1.8.1)
units:  Angstrom and eV
cores: 32
OpenMP: True
OMP_NUM_THREADS: 1

System changes: positions

Initializing position-dependent things.

Density initialized from wave functions

       Cl

[...]

Positions:
   0 Cl     5.492658    3.021858   22.024017    ( 0.0000,  0.0000,  0.0000)
   1 Cl     5.510971    3.021797   24.037565    ( 0.0000,  0.0000,  0.0000)

Unit cell:
           periodic     x           y           z      points  spacing
  1. axis:    yes   15.702014    0.000000    0.000000    90     0.1511
  2. axis:    yes    7.851006   13.598342    0.000000    90     0.1511
  3. axis:    yes    0.000000    0.000000   30.683867   175     0.1753

  Lengths:  15.702014  15.702013  30.683867
  Angles:   90.000000  90.000000  60.000001

Effective grid spacing dv^(1/3) = 0.1666

     iter     time        total  log10-change:
                         energy  eigst   dens
iter:   1 11:22:59   -70.814602  -2.99
iter:   2 11:23:17   -70.814611  -4.30  -2.61
iter:   3 11:23:45   -70.814414c -4.41  -2.63
iter:   4 11:24:03   -70.814417c -5.37  -3.34
iter:   5 11:24:29   -70.814412c -6.49  -3.38
iter:   6 11:24:53   -70.814406c -5.38  -3.43
iter:   7 11:25:23   -70.814406c -6.78  -4.04c
iter:   8 11:26:08   -70.814406c -6.51  -4.01c
iter:   9 11:26:27   -70.814406c -7.65c -4.15c

Converged after 9 iterations.

Dipole moment: (-0.009755, -0.008813, 0.000031) |e|*Ang

Energy contributions relative to reference atoms: (reference = -25109.898791)

Kinetic:         +9.772838
Potential:       -8.562526
External:        +0.000000
XC:             -72.033664
Entropy (-ST):   -0.000004
Local:           +0.008949
Free energy:    -70.814408
Extrapolated:   -70.814406

 Band  Eigenvalues  Occupancy
    0    -23.69418    2.00000
    1    -19.66025    2.00000
    2    -12.15520    2.00000
    3    -10.11413    2.00000
    4    -10.11412    2.00000
    5     -7.61176    2.00000
    6     -7.61176    2.00000
    7     -4.69271    0.00000

Fermi level: -6.11758

Gap: 2.919 eV
Transition (v -> c):
  (s=0, k=0, n=6, [0.00, 0.00, 0.00]) -> (s=0, k=0, n=7, [0.00, 0.00, 0.00])

Forces in eV/Ang:
  0 Cl    0.00408   -0.00000    0.03428
  1 Cl   -0.00310    0.00000   -0.03448

[...]

     iter     time        total  log10-change:
                         energy  eigst   dens
iter:   1 11:26:47   -70.815189  -2.39
iter:   2 11:27:05   -70.815225  -3.70  -2.31
iter:   3 11:27:23   -70.814437c -3.81  -2.33
iter:   4 11:27:47   -70.814449c -4.77  -3.04
iter:   5 11:28:05   -70.814430c -5.89  -3.07
iter:   6 11:28:28   -70.814406c -4.80  -3.13
iter:   7 11:29:01   -70.814406c -6.19  -3.75
iter:   8 11:29:26   -70.814405c -6.18  -3.72
iter:   9 11:29:52   -70.814405c -7.30  -3.94
iter:  10 11:30:18   -70.814405c -8.51c -4.26c

[...]

     iter     time        total  log10-change:
                         energy  eigst   dens
iter:   1 11:35:44   -70.815198  -2.38
iter:   2 11:35:58   -70.815233  -3.70  -2.31
iter:   3 11:36:14   -70.814439c -3.80  -2.33
iter:   4 11:36:30   -70.814452c -4.75  -3.03
iter:   5 11:36:51   -70.814430c -5.87  -3.07
iter:   6 11:37:22   -70.814406c -4.82  -3.13
iter:   7 11:38:04   -70.814407c -6.17  -3.76
iter:   8 11:38:36   -70.814405c -6.46  -3.74
iter:   9 11:39:10   -70.814405c -7.48c -3.96
iter:  10 11:39:36   -70.814405c -7.84c -4.15c

[...]

     iter     time        total  log10-change:
                         energy  eigst   dens
iter:   1 12:01:46   -70.814803  -2.69
iter:   2 12:02:10   -70.814820  -4.00  -2.46
iter:   3 12:02:31   -70.814422c -4.09  -2.48
iter:   4 12:02:50   -70.814429c -5.07  -3.19
iter:   5 12:03:08   -70.814419c -6.19  -3.21
iter:   6 12:03:26   -70.814406c -5.11  -3.27
iter:   7 12:03:52   -70.814406c -6.41  -3.92
iter:   8 12:04:19   -70.814405c -6.87  -3.89
iter:   9 12:04:53   -70.814405c -7.81c -4.10c

[...]

     iter     time        total  log10-change:
                         energy  eigst   dens
iter:   1 12:05:12   -70.815198  -2.38
iter:   2 12:05:43   -70.815233  -3.70  -2.31
iter:   3 12:06:12   -70.814439c -3.80  -2.33
iter:   4 12:06:36   -70.814452c -4.75  -3.03
iter:   5 12:06:54   -70.814430c -5.87  -3.07
iter:   6 12:07:11   -70.814406c -4.82  -3.13
iter:   7 12:07:30   -70.814407c -6.17  -3.76
iter:   8 12:07:48   -70.814405c -6.46  -3.74
iter:   9 12:08:05   -70.814405c -7.48c -3.96
iter:  10 12:08:38   -70.814405c -7.85c -4.15c

[...]

System changes: positions

Initializing position-dependent things.

Density initialized from wave functions

[...]

       Cl

Positions:
   0 Cl     5.512658    3.021858   22.024017    ( 0.0000,  0.0000,  0.0000)
   1 Cl     5.510971    3.021797   24.057565    ( 0.0000,  0.0000,  0.0000)

Unit cell:
           periodic     x           y           z      points  spacing
  1. axis:    yes   15.702014    0.000000    0.000000    90     0.1511
  2. axis:    yes    7.851006   13.598342    0.000000    90     0.1511
  3. axis:    yes    0.000000    0.000000   30.683867   175     0.1753

  Lengths:  15.702014  15.702013  30.683867
  Angles:   90.000000  90.000000  60.000001

Effective grid spacing dv^(1/3) = 0.1666

     iter     time        total  log10-change:
                         energy  eigst   dens
iter:   1 12:13:52   -70.818475  -2.03
iter:   2 12:14:19   -70.816721  -3.40  -2.04
iter:   3 12:14:40   -70.811084  -2.60  -2.07
iter:   4 12:15:04   -70.810443c -4.37  -2.52
iter:   5 12:15:27   -70.810618c -4.14  -2.70
iter:   6 12:15:55   -70.810299c -4.03  -2.65
iter:   7 12:16:18   -70.810303c -5.33  -3.21
iter:   8 12:16:45   -70.810307c -5.30  -3.32
iter:   9 12:17:13   -70.810304c -6.31  -3.53
iter:  10 12:17:39   -70.810303c -6.43  -3.70
iter:  11 12:18:28   -70.810304c -6.45  -3.77
iter:  12 12:19:13   -70.810303c -6.84  -4.16c
iter:  13 12:19:31   -70.810303c -7.92c -4.51c

Converged after 13 iterations.

Dipole moment: (-0.009675, -0.008879, -0.000055) |e|*Ang

Energy contributions relative to reference atoms: (reference = -25109.898791)

Kinetic:         +8.978848
Potential:       -7.959706
External:        +0.000000
XC:             -71.840036
Entropy (-ST):   -0.000007
Local:           +0.010594
Free energy:    -70.810307
Extrapolated:   -70.810303

 Band  Eigenvalues  Occupancy
    0    -23.57082    2.00000
    1    -19.71538    2.00000
    2    -12.11212    2.00000
    3    -10.05687    2.00000
    4    -10.05687    2.00000
    5     -7.65255    2.00000
    6     -7.65254    2.00000
    7     -4.84695    0.00000

Fermi level: -6.21509

Gap: 2.806 eV
Transition (v -> c):
  (s=0, k=0, n=6, [0.00, 0.00, 0.00]) -> (s=0, k=0, n=7, [0.00, 0.00, 0.00])

Forces in eV/Ang:
  0 Cl   -0.00031   -0.00001    0.37661
  1 Cl    0.00031   -0.00000   -0.37187