User:   thorkong@node028.cluster
Date:   Sun Oct  9 01:45:16 2022
Arch:   x86_64
Pid:    24877
Python: 3.10.5
gpaw:   /groups/kemi/thorkong/miniconda3/envs/gpaw22/lib/python3.10/site-packages/gpaw
_gpaw:  /groups/kemi/thorkong/miniconda3/envs/gpaw22/lib/python3.10/site-packages/
        _gpaw.cpython-310-x86_64-linux-gnu.so
ase:    /groups/kemi/thorkong/miniconda3/envs/gpaw22/lib/python3.10/site-packages/ase (version 3.22.1)
numpy:  /groups/kemi/thorkong/miniconda3/envs/gpaw22/lib/python3.10/site-packages/numpy (version 1.23.0)
scipy:  /groups/kemi/thorkong/miniconda3/envs/gpaw22/lib/python3.10/site-packages/scipy (version 1.8.1)
units:  Angstrom and eV
cores: 32
OpenMP: True
OMP_NUM_THREADS: 1

Input parameters:
  basis: dzp
  kpts: [4 4 1]
  mode: {ecut: 600.0,
         name: pw}
  xc: BEEF-vdW

System changes: positions, numbers, cell, pbc, initial_charges, initial_magmoms

Initialize ...

Cu-setup:
  name: Copper
  id: f1c4d45d90492f1bbfdcb091e8418fdf
  Z: 29.0
  valence: 11
  core: 18
  charge: 0.0
  file: /groups/kemi/thorkong/miniconda3/envs/gpaw22/share/gpaw/Cu.PBE.gz
  compensation charges: gauss, rc=0.33, lmax=2
  cutoffs: 2.06(filt), 2.43(core),
  valence states:
                energy  radius
    4s(1.00)    -4.609   1.164
    4p(0.00)    -0.698   1.164
    3d(10.00)    -5.039   1.058
    *s          22.603   1.164
    *p          26.513   1.164
    *d          22.172   1.058

  LCAO basis set for Cu:
    Name: dzp
    File: /groups/kemi/thorkong/miniconda3/envs/gpaw22/share/gpaw/Cu.dzp.basis.gz
    Number of radial functions: 5
    Number of spherical harmonics: 15
      l=0, rc=8.9688 Bohr: 4s-sz confined orbital
      l=2, rc=5.1719 Bohr: 3d-sz confined orbital
      l=0, rc=5.3281 Bohr: 4s-dz split-valence wave
      l=2, rc=3.1406 Bohr: 3d-dz split-valence wave
      l=1, rc=8.9688 Bohr: p-type Gaussian polarization

Cl-setup:
  name: Chlorine
  id: 726897f06f34e53cf8e33b5885a02604
  Z: 17.0
  valence: 7
  core: 10
  charge: 0.0
  file: /groups/kemi/thorkong/miniconda3/envs/gpaw22/share/gpaw/Cl.PBE.gz
  compensation charges: gauss, rc=0.25, lmax=2
  cutoffs: 1.40(filt), 1.49(core),
  valence states:
                energy  radius
    3s(2.00)   -20.689   0.794
    3p(5.00)    -8.594   0.794
    *s           6.523   0.794
    *p          18.617   0.794
    *d           0.000   0.794

  LCAO basis set for Cl:
    Name: dzp
    File: /groups/kemi/thorkong/miniconda3/envs/gpaw22/share/gpaw/Cl.dzp.basis.gz
    Number of radial functions: 5
    Number of spherical harmonics: 13
      l=0, rc=5.1719 Bohr: 3s-sz confined orbital
      l=1, rc=6.2656 Bohr: 3p-sz confined orbital
      l=0, rc=2.8281 Bohr: 3s-dz split-valence wave
      l=1, rc=3.5156 Bohr: 3p-dz split-valence wave
      l=2, rc=6.2656 Bohr: d-type Gaussian polarization

Reference energy: -2456268.298212

Spin-paired calculation

Convergence criteria:
 Maximum [total energy] change in last 3 cyles: 0.0005 eV / electron
 Maximum integral of absolute [dens]ity change: 0.0001 electrons / valence electron
 Maximum integral of absolute [eigenst]ate change: 4e-08 eV^2 / valence electron
 Maximum number of scf [iter]ations: 333
 (Square brackets indicate name in SCF output, whereas a 'c' in
 the SCF output indicates the quantity has converged.)

Symmetries present (total): 1

  ( 1  0  0)
  ( 0  1  0)
  ( 0  0  1)

16 k-points: 4 x 4 x 1 Monkhorst-Pack grid
8 k-points in the irreducible part of the Brillouin zone
       k-points in crystal coordinates                weights
   0:     0.12500000   -0.37500000    0.00000000          2/16
   1:     0.12500000   -0.12500000    0.00000000          2/16
   2:     0.12500000    0.12500000    0.00000000          2/16
   3:     0.12500000    0.37500000    0.00000000          2/16
   4:     0.37500000   -0.37500000    0.00000000          2/16
   5:     0.37500000   -0.12500000    0.00000000          2/16
   6:     0.37500000    0.12500000    0.00000000          2/16
   7:     0.37500000    0.37500000    0.00000000          2/16

Wave functions: Plane wave expansion
  Cutoff energy: 600.000 eV
  Number of coefficients (min, max): 63070, 63184
  Pulay-stress correction: 0.000000 eV/Ang^3 (de/decut=0.000000)
  Using FFTW library
  ScaLapack parameters: grid=2x2, blocksize=64
  Wavefunction extrapolation:
    Improved wavefunction reuse through dual PAW basis

Occupation numbers: Fermi-Dirac: width=0.1000 eV

Eigensolver
   Davidson(niter=2)

Densities:
  Coarse grid: 45*48*175 grid
  Fine grid: 90*96*350 grid
  Total Charge: 0.000000

Density mixing:
  Method: separate
  Backend: pulay
  Linear mixing parameter: 0.05
  Mixing with 5 old densities
  Damping of long wave oscillations: 50

Hamiltonian:
  XC and Coulomb potentials evaluated on a 90*96*350 grid
  Using the BEEF-vdW Exchange-Correlation functional
  External potential:
    NoExternalPotential

XC parameters: BEEF-vdW with 2 nearest neighbor stencil

Total number of cores used: 32
Parallelization over k-points: 8
Domain decomposition: 1 x 1 x 4
                      2 x 2 x 8 (xc only)

Number of atoms: 56
Number of atomic orbitals: 836
Number of bands in calculation: 369
Number of valence electrons: 608
Bands to converge: occupied

... initialized

Initializing position-dependent things.

Density initialized from atomic densities
Creating initial wave functions:
  369 bands from LCAO basis set

                   Cl

          Cu    Cu     Cu
         Cu   CCu   CuCu   Cu

       Cu    CCu   CCu   Cu
          CCu   CCu    CCu

         Cu   CCu   CCu    Cu
       Cu    CCu   CCu   Cu

          CCu    CCu   CCu
         Cu   CCu   CCu    Cu

       Cu   CuCu   CCu   Cu
           Cu     Cu    Cu

[...]

Positions:
   0 Cu     1.853835    1.805230   10.010973    ( 0.0000,  0.0000,  0.0000)
   1 Cu     0.570331    0.522676   11.840147    ( 0.0000,  0.0000,  0.0000)
   2 Cu     3.192251    0.522824   11.839319    ( 0.0000,  0.0000,  0.0000)
   3 Cu     1.879574    1.830141   13.696374    ( 0.0000,  0.0000,  0.0000)
   4 Cu     0.573274    0.518725   15.544714    ( 0.0000,  0.0000,  0.0000)
   5 Cu     3.191256    0.528231   15.556242    ( 0.0000,  0.0000,  0.0000)
   6 Cu     1.877833    1.832989   17.410423    ( 0.0000,  0.0000,  0.0000)
   7 Cu     0.574096    0.531408   19.235562    ( 0.0000,  0.0000,  0.0000)
   8 Cu     3.191648    0.526572   19.238431    ( 0.0000,  0.0000,  0.0000)
   9 Cu     0.572976    3.145250   11.838635    ( 0.0000,  0.0000,  0.0000)
  10 Cu     0.574743    3.142721   15.551177    ( 0.0000,  0.0000,  0.0000)
  11 Cu     0.575328    3.143116   19.241349    ( 0.0000,  0.0000,  0.0000)
  12 Cu     7.116868    1.834361   10.014730    ( 0.0000,  0.0000,  0.0000)
  13 Cu     5.811136    0.521108   11.839368    ( 0.0000,  0.0000,  0.0000)
  14 Cu     7.118849    1.833639   13.696445    ( 0.0000,  0.0000,  0.0000)
  15 Cu     5.810605    0.531649   15.548705    ( 0.0000,  0.0000,  0.0000)
  16 Cu     7.122968    1.830353   17.412637    ( 0.0000,  0.0000,  0.0000)
  17 Cu     5.808474    0.519872   19.233528    ( 0.0000,  0.0000,  0.0000)
  18 Cu     4.526002    1.809455   10.008289    ( 0.0000,  0.0000,  0.0000)
  19 Cu     4.527274    4.476615   10.010154    ( 0.0000,  0.0000,  0.0000)
  20 Cu     3.191993    3.143564   11.852977    ( 0.0000,  0.0000,  0.0000)
  21 Cu     5.809323    3.143100   11.841272    ( 0.0000,  0.0000,  0.0000)
  22 Cu     4.502450    1.833385   13.690096    ( 0.0000,  0.0000,  0.0000)
  23 Cu     4.502336    4.453606   13.698356    ( 0.0000,  0.0000,  0.0000)
  24 Cu     3.189091    3.140093   15.553320    ( 0.0000,  0.0000,  0.0000)
  25 Cu     5.810711    3.137953   15.558727    ( 0.0000,  0.0000,  0.0000)
  26 Cu     4.499301    1.833128   17.410319    ( 0.0000,  0.0000,  0.0000)
  27 Cu     4.499428    4.450125   17.398609    ( 0.0000,  0.0000,  0.0000)
  28 Cu     3.164203    3.117081   19.241435    ( 0.0000,  0.0000,  0.0000)
  29 Cu     5.835907    3.112091   19.243869    ( 0.0000,  0.0000,  0.0000)
  30 Cu     1.855542    4.481575   10.007703    ( 0.0000,  0.0000,  0.0000)
  31 Cu     1.882942    7.073878   10.017711    ( 0.0000,  0.0000,  0.0000)
  32 Cu     0.568458    5.763345   11.838887    ( 0.0000,  0.0000,  0.0000)
  33 Cu     3.192115    5.760568   11.841222    ( 0.0000,  0.0000,  0.0000)
  34 Cu     1.880741    4.455742   13.692989    ( 0.0000,  0.0000,  0.0000)
  35 Cu     1.880847    7.062019   13.702835    ( 0.0000,  0.0000,  0.0000)
  36 Cu     0.572552    5.760091   15.555136    ( 0.0000,  0.0000,  0.0000)
  37 Cu     3.188970    5.760328   15.561625    ( 0.0000,  0.0000,  0.0000)
  38 Cu     1.882094    4.450609   17.410296    ( 0.0000,  0.0000,  0.0000)
  39 Cu     1.880294    7.072571   17.412192    ( 0.0000,  0.0000,  0.0000)
  40 Cu     0.574562    5.759366   19.236540    ( 0.0000,  0.0000,  0.0000)
  41 Cu     3.165529    5.784160   19.243303    ( 0.0000,  0.0000,  0.0000)
  42 Cu     7.116110    4.450651   10.009948    ( 0.0000,  0.0000,  0.0000)
  43 Cu     7.117328    7.062322   10.015662    ( 0.0000,  0.0000,  0.0000)
  44 Cu     5.813596    5.760732   11.841085    ( 0.0000,  0.0000,  0.0000)
  45 Cu     7.116646    4.450963   13.700401    ( 0.0000,  0.0000,  0.0000)
  46 Cu     7.118121    7.074932   13.706825    ( 0.0000,  0.0000,  0.0000)
  47 Cu     5.811874    5.763562   15.555323    ( 0.0000,  0.0000,  0.0000)
  48 Cu     7.118454    4.448444   17.412965    ( 0.0000,  0.0000,  0.0000)
  49 Cu     7.121095    7.071033   17.411402    ( 0.0000,  0.0000,  0.0000)
  50 Cu     5.837570    5.788387   19.240553    ( 0.0000,  0.0000,  0.0000)
  51 Cu     4.499764    7.067150   10.012853    ( 0.0000,  0.0000,  0.0000)
  52 Cu     4.500167    7.065424   13.695348    ( 0.0000,  0.0000,  0.0000)
  53 Cu     4.499172    7.070886   17.412267    ( 0.0000,  0.0000,  0.0000)
  54 Cl     4.508008    4.447041   21.286495    ( 0.0000,  0.0000,  0.0000)
  55 Cl     3.183525    3.146576    7.965132    ( 0.0000,  0.0000,  0.0000)

Unit cell:
           periodic     x           y           z      points  spacing
  1. axis:    yes    7.851007    0.000000    0.000000    45     0.1655
  2. axis:    yes    2.617002    7.851007    0.000000    48     0.1636
  3. axis:    yes    0.000000    0.000000   30.683867   175     0.1753

  Lengths:   7.851007   8.275688  30.683867
  Angles:   90.000000  90.000000  71.565053

Effective grid spacing dv^(1/3) = 0.1710

     iter     time        total  log10-change:
                         energy  eigst   dens
iter:   1 01:50:56 -4193.879899
iter:   2 01:52:20 -4178.390882  -1.31  -1.19
iter:   3 01:53:27 -4167.953470  -1.42  -1.28
iter:   4 01:54:25 -4161.838426  -1.26  -1.40
iter:   5 01:55:25 -4162.810199  -1.76  -1.64
iter:   6 01:56:13 -4163.437840  -1.90  -1.76
iter:   7 01:57:02 -4161.437299  -2.53  -1.93
iter:   8 01:57:58 -4160.234928  -2.32  -2.13
iter:   9 01:58:55 -4160.170102  -3.86  -2.41
iter:  10 01:59:50 -4160.151630c -3.23  -2.51
iter:  11 02:00:45 -4160.129569c -4.11  -2.73
iter:  12 02:01:49 -4160.118407c -4.12  -2.92
iter:  13 02:02:43 -4160.116506c -4.90  -3.11
iter:  14 02:03:40 -4160.115461c -5.34  -3.16
iter:  15 02:04:48 -4160.116584c -4.55  -3.21
iter:  16 02:05:38 -4160.115538c -5.43  -3.56
iter:  17 02:06:39 -4160.114954c -5.11  -3.68
iter:  18 02:07:47 -4160.114978c -5.84  -3.83
iter:  19 02:08:43 -4160.114828c -5.92  -3.97
iter:  20 02:09:43 -4160.114816c -6.34  -4.16c
iter:  21 02:10:30 -4160.114772c -6.82  -4.20c
iter:  22 02:11:20 -4160.114771c -6.65  -4.33c
iter:  23 02:12:20 -4160.114780c -7.18  -4.51c
iter:  24 02:13:17 -4160.114780c -7.48c -4.58c

Converged after 24 iterations.

Dipole moment: (-12.658341, -27.415116, 0.000106) |e|*Ang

Energy contributions relative to reference atoms: (reference = -2456268.298212)

Kinetic:       +392.798103
Potential:     -438.012873
External:        +0.000000
XC:            -4113.703895
Entropy (-ST):   -0.595458
Local:           -0.898385
Free energy:   -4160.412509
Extrapolated:  -4160.114780

Showing only first 2 kpts
 Kpt  Band  Eigenvalues  Occupancy
  0   302     -0.97239    1.91067
  0   303     -0.88309    1.79501
  0   304     -0.69401    1.13861
  0   305     -0.65199    0.92953

  1   302     -1.12567    1.98001
  1   303     -1.02152    1.94438
  1   304     -0.90033    1.82463
  1   305     -0.63408    0.84122

Fermi level: -0.66611

No gap

Forces in eV/Ang:
  0 Cu    0.11555    0.12412   -0.20600
  1 Cu    0.06527    0.03779   -0.07367
  2 Cu    0.00602    0.04831   -0.06189
  3 Cu    0.01286    0.00769   -0.00233
  4 Cu    0.01367    0.05678    0.07036
  5 Cu    0.00451   -0.00720   -0.06073
  6 Cu    0.07775    0.03780    0.08713
  7 Cu   -0.00232    0.03296   -0.03980
  8 Cu    0.00290    0.00619   -0.09343
  9 Cu    0.04050   -0.00611   -0.05399
 10 Cu    0.00230   -0.00387   -0.02518
 11 Cu    0.00523    0.00681   -0.08980
 12 Cu   -0.01114    0.00478    0.08276
 13 Cu   -0.07324    0.05999   -0.07722
 14 Cu   -0.01618   -0.00423    0.01028
 15 Cu   -0.01785   -0.06292    0.05426
 16 Cu   -0.09361    0.04908    0.06622
 17 Cu   -0.00145   -0.03903   -0.04097
 18 Cu   -0.09903    0.09174   -0.19594
 19 Cu   -0.10726   -0.10333   -0.20857
 20 Cu   -0.00229   -0.00504   -0.02104
 21 Cu   -0.04036   -0.00470   -0.08562
 22 Cu    0.00209    0.01284    0.07722
 23 Cu   -0.00228   -0.00432    0.04736
 24 Cu    0.00216    0.00465   -0.04873
 25 Cu   -0.00433    0.03017   -0.06015
 26 Cu    0.01395    0.04130    0.08133
 27 Cu    0.00223    0.00527    0.02068
 28 Cu    0.10698    0.10337    0.20712
 29 Cu   -0.11417    0.11254    0.20780
 30 Cu    0.11448   -0.11255   -0.20922
 31 Cu    0.00131    0.03920    0.04063
 32 Cu    0.09350   -0.04870   -0.06669
 33 Cu   -0.01406   -0.04082   -0.08158
 34 Cu    0.00412   -0.02982    0.05882
 35 Cu    0.01762    0.06316   -0.05530
 36 Cu    0.01612    0.00429   -0.01112
 37 Cu   -0.00216   -0.01261   -0.07846
 38 Cu    0.04047    0.00495    0.08539
 39 Cu    0.07321   -0.05977    0.07683
 40 Cu    0.01116   -0.00438   -0.08319
 41 Cu    0.09871   -0.09122    0.19441
 42 Cu   -0.00524   -0.00661    0.08939
 43 Cu    0.00220   -0.03278    0.03956
 44 Cu   -0.07783   -0.03742   -0.08758
 45 Cu   -0.00231    0.00431    0.02421
 46 Cu   -0.01365   -0.05646   -0.07132
 47 Cu   -0.01306   -0.00749    0.00095
 48 Cu   -0.04076    0.00642    0.05367
 49 Cu   -0.06549   -0.03769    0.07327
 50 Cu   -0.11533   -0.12358    0.20465
 51 Cu   -0.00298   -0.00610    0.09300
 52 Cu   -0.00461    0.00746    0.05974
 53 Cu   -0.00610   -0.04831    0.06168
 54 Cl    0.01438   -0.00165   -0.83774
 55 Cl   -0.01443    0.00164    0.83780

System changes: positions

[...]

Density initialized from wave functions

[...]

          Cu    Cu     Cu
         Cu   CCu   CCu    Cu

       Cu    CCu   CCu   Cu
          CCu   CuCu   CCu

[...]

          CCu   CuCu   CCu
         Cu   CCu   CCu    Cu

       Cu    CCu   CCu   Cu
           Cu     Cu    Cu

[...]

          Cu    Cu     Cu
         Cu   CCu   CCu    Cu

[...]

       Cu    CCu   CCu   Cu
           Cu     Cu    Cu

[...]

          Cu    Cu     Cu
         Cu   CCu   CuCu   Cu

       Cu    CCu   CCu   Cu
          CCu   CuCu   CCu

         Cu   CCu   CCu    Cu
       Cu    CCu   CCu   Cu

          CCu   CuCu   CCu
         Cu   CCu   CCu    Cu

       Cu   CuCu   CCu   Cu
           Cu     Cu    Cu

               Cl

[...]

System changes: positions

Initializing position-dependent things.

Density initialized from wave functions

                    Cl
           Cu    Cu     Cu
               Cu    Cu     Cu
         Cu    Cu     Cu
       Cu    CCu    Cu    Cu

           Cu    CCu    Cu
         Cu    Cu    CCu    Cu

       Cu    CCu    Cu    Cu
           Cu    CCu    Cu

         Cu    Cu    CCu    Cu
             Cu     Cu    Cu
       Cu     Cu    Cu
           Cu     Cu    Cu
               Cl

Positions:
   0 Cu     1.849141    1.804104    9.973214    ( 0.0000,  0.0000,  0.0000)
   1 Cu     0.589906    0.539144   11.822139    ( 0.0000,  0.0000,  0.0000)
   2 Cu     3.193607    0.541195   11.823220    ( 0.0000,  0.0000,  0.0000)
   3 Cu     1.879074    1.829371   13.700132    ( 0.0000,  0.0000,  0.0000)
   4 Cu     0.574142    0.538565   15.578219    ( 0.0000,  0.0000,  0.0000)
   5 Cu     3.194989    0.520854   15.554579    ( 0.0000,  0.0000,  0.0000)
   6 Cu     1.901027    1.847123   17.429401    ( 0.0000,  0.0000,  0.0000)
   7 Cu     0.575341    0.549479   19.224371    ( 0.0000,  0.0000,  0.0000)
   8 Cu     3.192150    0.526162   19.222114    ( 0.0000,  0.0000,  0.0000)
   9 Cu     0.591416    3.143986   11.828224    ( 0.0000,  0.0000,  0.0000)
  10 Cu     0.573023    3.146363   15.561288    ( 0.0000,  0.0000,  0.0000)
  11 Cu     0.576316    3.151102   19.218489    ( 0.0000,  0.0000,  0.0000)
  12 Cu     7.115674    1.843091   10.031774    ( 0.0000,  0.0000,  0.0000)
  13 Cu     5.789611    0.538041   11.819093    ( 0.0000,  0.0000,  0.0000)
  14 Cu     7.115635    1.832588   13.693859    ( 0.0000,  0.0000,  0.0000)
  15 Cu     5.806439    0.506474   15.573125    ( 0.0000,  0.0000,  0.0000)
  16 Cu     7.094937    1.845892   17.431319    ( 0.0000,  0.0000,  0.0000)
  17 Cu     5.806086    0.501726   19.224816    ( 0.0000,  0.0000,  0.0000)
  18 Cu     4.534695    1.794604    9.969156    ( 0.0000,  0.0000,  0.0000)
  19 Cu     4.534044    4.481657    9.969426    ( 0.0000,  0.0000,  0.0000)
  20 Cu     3.193510    3.141629   11.856950    ( 0.0000,  0.0000,  0.0000)
  21 Cu     5.789158    3.140301   11.825416    ( 0.0000,  0.0000,  0.0000)
  22 Cu     4.505998    1.825024   13.707829    ( 0.0000,  0.0000,  0.0000)
  23 Cu     4.502212    4.454489   13.699932    ( 0.0000,  0.0000,  0.0000)
  24 Cu     3.189100    3.139426   15.550606    ( 0.0000,  0.0000,  0.0000)
  25 Cu     5.812004    3.138836   15.547737    ( 0.0000,  0.0000,  0.0000)
  26 Cu     4.502562    1.849378   17.429205    ( 0.0000,  0.0000,  0.0000)
  27 Cu     4.497839    4.452278   17.393881    ( 0.0000,  0.0000,  0.0000)
  28 Cu     3.157372    3.112282   19.282510    ( 0.0000,  0.0000,  0.0000)
  29 Cu     5.841962    3.101284   19.284737    ( 0.0000,  0.0000,  0.0000)
  30 Cu     1.849480    4.492574    9.967097    ( 0.0000,  0.0000,  0.0000)
  31 Cu     1.885264    7.092185   10.025652    ( 0.0000,  0.0000,  0.0000)
  32 Cu     0.596305    5.748216   11.819744    ( 0.0000,  0.0000,  0.0000)
  33 Cu     3.188744    5.744786   11.821972    ( 0.0000,  0.0000,  0.0000)
  34 Cu     1.879303    4.455084   13.702752    ( 0.0000,  0.0000,  0.0000)
  35 Cu     1.884851    7.087458   13.677948    ( 0.0000,  0.0000,  0.0000)
  36 Cu     0.575711    5.761261   15.556966    ( 0.0000,  0.0000,  0.0000)
  37 Cu     3.185351    5.768840   15.542671    ( 0.0000,  0.0000,  0.0000)
  38 Cu     1.902446    4.453618   17.425824    ( 0.0000,  0.0000,  0.0000)
  39 Cu     1.901924    7.055660   17.431979    ( 0.0000,  0.0000,  0.0000)
  40 Cu     0.575706    5.750897   19.218970    ( 0.0000,  0.0000,  0.0000)
  41 Cu     3.156787    5.799230   19.282734    ( 0.0000,  0.0000,  0.0000)
  42 Cu     7.115061    4.442850   10.032239    ( 0.0000,  0.0000,  0.0000)
  43 Cu     7.115969    7.044385   10.026132    ( 0.0000,  0.0000,  0.0000)
  44 Cu     5.790516    5.746962   11.821770    ( 0.0000,  0.0000,  0.0000)
  45 Cu     7.118367    4.447594   13.689514    ( 0.0000,  0.0000,  0.0000)
  46 Cu     7.117247    7.055404   13.672864    ( 0.0000,  0.0000,  0.0000)
  47 Cu     5.812239    5.764537   15.550441    ( 0.0000,  0.0000,  0.0000)
  48 Cu     7.099730    4.449940   17.422923    ( 0.0000,  0.0000,  0.0000)
  49 Cu     7.101256    7.054605   17.428973    ( 0.0000,  0.0000,  0.0000)
  50 Cu     5.842219    5.789749   19.278687    ( 0.0000,  0.0000,  0.0000)
  51 Cu     4.499179    7.067738   10.028596    ( 0.0000,  0.0000,  0.0000)
  52 Cu     4.496322    7.073117   13.696147    ( 0.0000,  0.0000,  0.0000)
  53 Cu     4.497771    7.052458   17.427942    ( 0.0000,  0.0000,  0.0000)
  54 Cl     4.521088    4.446522   21.003507    ( 0.0000,  0.0000,  0.0000)
  55 Cl     3.170422    3.147134    8.248931    ( 0.0000,  0.0000,  0.0000)

Unit cell:
           periodic     x           y           z      points  spacing
  1. axis:    yes    7.851007    0.000000    0.000000    45     0.1655
  2. axis:    yes    2.617002    7.851007    0.000000    48     0.1636
  3. axis:    yes    0.000000    0.000000   30.683867   175     0.1753

  Lengths:   7.851007   8.275688  30.683867
  Angles:   90.000000  90.000000  71.565053

Effective grid spacing dv^(1/3) = 0.1710

     iter     time        total  log10-change:
                         energy  eigst   dens
iter:   1 03:28:48 -4160.472109  -3.64
iter:   2 03:30:05 -4160.457558  -4.42  -3.07
iter:   3 03:31:08 -4160.454401c -5.00  -3.30
iter:   4 03:31:59 -4160.452205c -5.36  -3.44
iter:   5 03:33:00 -4160.451566c -4.90  -3.66
iter:   6 03:33:50 -4160.451268c -5.73  -4.00
iter:   7 03:34:46 -4160.451270c -6.56  -4.18c
iter:   8 03:35:43 -4160.451296c -6.95  -4.25c
iter:   9 03:36:38 -4160.451311c -6.62  -4.40c
iter:  10 03:37:35 -4160.451296c -7.48c -4.59c

Converged after 10 iterations.

Dipole moment: (-12.602729, -27.311711, -0.000390) |e|*Ang

Energy contributions relative to reference atoms: (reference = -2456268.298212)

Kinetic:       +396.863144
Potential:     -440.961896
External:        +0.000000
XC:            -4115.210958
Entropy (-ST):   -0.592680
Local:           -0.845247
Free energy:   -4160.747636
Extrapolated:  -4160.451296

Showing only first 2 kpts
 Kpt  Band  Eigenvalues  Occupancy
  0   302     -0.71695    1.91880
  0   303     -0.62914    1.81517
  0   304     -0.44828    1.23356
  0   305     -0.38673    0.93031

  1   302     -0.87102    1.98203
  1   303     -0.73457    1.93147
  1   304     -0.59615    1.75189
  1   305     -0.32869    0.65478

Fermi level: -0.40069

No gap

Forces in eV/Ang:
  0 Cu    0.00428    0.00814    0.00993
  1 Cu    0.00065    0.00175    0.00298
  2 Cu    0.00063   -0.00878    0.00318
  3 Cu    0.00471    0.00738    0.00060
  4 Cu    0.00314    0.00060   -0.00831
  5 Cu   -0.00168    0.00285   -0.00546
  6 Cu   -0.00045    0.00086   -0.00649
  7 Cu   -0.00116    0.01082    0.00448
  8 Cu   -0.00038    0.00053   -0.00215
  9 Cu   -0.00642    0.00109    0.00651
 10 Cu    0.00373    0.00021   -0.00630
 11 Cu    0.00161    0.00361   -0.00387
 12 Cu    0.00033    0.00382    0.00200
 13 Cu   -0.00035   -0.00310    0.00158
 14 Cu   -0.00058    0.00146    0.00759
 15 Cu   -0.00189    0.00608   -0.00726
 16 Cu    0.00031   -0.00274   -0.00345
 17 Cu    0.00054   -0.01195    0.00497
 18 Cu   -0.00542   -0.00264    0.01087
 19 Cu   -0.00488   -0.00867    0.01377
 20 Cu   -0.00009    0.00035    0.00931
 21 Cu    0.00636   -0.00183    0.00747
 22 Cu   -0.00375    0.00543    0.00009
 23 Cu   -0.00173   -0.00343   -0.00085
 24 Cu    0.00171    0.00363    0.00230
 25 Cu   -0.00612    0.00156    0.00124
 26 Cu    0.00020   -0.00935   -0.00458
 27 Cu    0.00010   -0.00024   -0.00765
 28 Cu    0.00530    0.00905   -0.01265
 29 Cu   -0.00514   -0.00352   -0.01048
 30 Cu    0.00477    0.00397    0.01174
 31 Cu   -0.00074    0.01180   -0.00462
 32 Cu   -0.00009    0.00282    0.00257
 33 Cu   -0.00028    0.00966    0.00446
 34 Cu    0.00602   -0.00150    0.00094
 35 Cu    0.00178   -0.00577    0.00935
 36 Cu    0.00072   -0.00140   -0.00520
 37 Cu    0.00363   -0.00528    0.00216
 38 Cu   -0.00646    0.00191   -0.00789
 39 Cu   -0.00005    0.00338   -0.00235
 40 Cu   -0.00035   -0.00391   -0.00142
 41 Cu    0.00581    0.00228   -0.00984
 42 Cu   -0.00162   -0.00332    0.00474
 43 Cu    0.00122   -0.01066   -0.00405
 44 Cu    0.00014   -0.00093    0.00553
 45 Cu   -0.00379    0.00006    0.00829
 46 Cu   -0.00314   -0.00051    0.01040
 47 Cu   -0.00487   -0.00719    0.00167
 48 Cu    0.00641   -0.00091   -0.00709
 49 Cu   -0.00048   -0.00124   -0.00407
 50 Cu   -0.00466   -0.00841   -0.00916
 51 Cu    0.00032   -0.00041    0.00273
 52 Cu    0.00163   -0.00251    0.00767
 53 Cu   -0.00066    0.00887   -0.00353
 54 Cl    0.00748   -0.00122   -0.00252
 55 Cl   -0.00746    0.00131   -0.00262