User:   thorkong@node028.cluster
Date:   Mon Oct 17 14:35:19 2022
Arch:   x86_64
Pid:    75006
Python: 3.10.5
gpaw:   /groups/kemi/thorkong/miniconda3/envs/gpaw22/lib/python3.10/site-packages/gpaw
_gpaw:  /groups/kemi/thorkong/miniconda3/envs/gpaw22/lib/python3.10/site-packages/
        _gpaw.cpython-310-x86_64-linux-gnu.so
ase:    /groups/kemi/thorkong/miniconda3/envs/gpaw22/lib/python3.10/site-packages/ase (version 3.22.1)
numpy:  /groups/kemi/thorkong/miniconda3/envs/gpaw22/lib/python3.10/site-packages/numpy (version 1.23.0)
scipy:  /groups/kemi/thorkong/miniconda3/envs/gpaw22/lib/python3.10/site-packages/scipy (version 1.8.1)
units:  Angstrom and eV
cores: 32
OpenMP: True
OMP_NUM_THREADS: 1

Input parameters:
  basis: dzp
  kpts: [4 4 1]
  mode: {ecut: 600.0,
         name: pw}
  xc: BEEF-vdW

System changes: positions, numbers, cell, pbc, initial_charges, initial_magmoms

Initialize ...

Cu-setup:
  name: Copper
  id: f1c4d45d90492f1bbfdcb091e8418fdf
  Z: 29.0
  valence: 11
  core: 18
  charge: 0.0
  file: /groups/kemi/thorkong/miniconda3/envs/gpaw22/share/gpaw/Cu.PBE.gz
  compensation charges: gauss, rc=0.33, lmax=2
  cutoffs: 2.06(filt), 2.43(core),
  valence states:
                energy  radius
    4s(1.00)    -4.609   1.164
    4p(0.00)    -0.698   1.164
    3d(10.00)    -5.039   1.058
    *s          22.603   1.164
    *p          26.513   1.164
    *d          22.172   1.058

  LCAO basis set for Cu:
    Name: dzp
    File: /groups/kemi/thorkong/miniconda3/envs/gpaw22/share/gpaw/Cu.dzp.basis.gz
    Number of radial functions: 5
    Number of spherical harmonics: 15
      l=0, rc=8.9688 Bohr: 4s-sz confined orbital
      l=2, rc=5.1719 Bohr: 3d-sz confined orbital
      l=0, rc=5.3281 Bohr: 4s-dz split-valence wave
      l=2, rc=3.1406 Bohr: 3d-dz split-valence wave
      l=1, rc=8.9688 Bohr: p-type Gaussian polarization

Cl-setup:
  name: Chlorine
  id: 726897f06f34e53cf8e33b5885a02604
  Z: 17.0
  valence: 7
  core: 10
  charge: 0.0
  file: /groups/kemi/thorkong/miniconda3/envs/gpaw22/share/gpaw/Cl.PBE.gz
  compensation charges: gauss, rc=0.25, lmax=2
  cutoffs: 1.40(filt), 1.49(core),
  valence states:
                energy  radius
    3s(2.00)   -20.689   0.794
    3p(5.00)    -8.594   0.794
    *s           6.523   0.794
    *p          18.617   0.794
    *d           0.000   0.794

  LCAO basis set for Cl:
    Name: dzp
    File: /groups/kemi/thorkong/miniconda3/envs/gpaw22/share/gpaw/Cl.dzp.basis.gz
    Number of radial functions: 5
    Number of spherical harmonics: 13
      l=0, rc=5.1719 Bohr: 3s-sz confined orbital
      l=1, rc=6.2656 Bohr: 3p-sz confined orbital
      l=0, rc=2.8281 Bohr: 3s-dz split-valence wave
      l=1, rc=3.5156 Bohr: 3p-dz split-valence wave
      l=2, rc=6.2656 Bohr: d-type Gaussian polarization

Reference energy: -2506488.095795

Spin-paired calculation

Convergence criteria:
 Maximum [total energy] change in last 3 cyles: 0.0005 eV / electron
 Maximum integral of absolute [dens]ity change: 0.0001 electrons / valence electron
 Maximum integral of absolute [eigenst]ate change: 4e-08 eV^2 / valence electron
 Maximum number of scf [iter]ations: 333
 (Square brackets indicate name in SCF output, whereas a 'c' in
 the SCF output indicates the quantity has converged.)

Symmetries present (total): 1

  ( 1  0  0)
  ( 0  1  0)
  ( 0  0  1)

16 k-points: 4 x 4 x 1 Monkhorst-Pack grid
8 k-points in the irreducible part of the Brillouin zone
       k-points in crystal coordinates                weights
   0:     0.12500000   -0.37500000    0.00000000          2/16
   1:     0.12500000   -0.12500000    0.00000000          2/16
   2:     0.12500000    0.12500000    0.00000000          2/16
   3:     0.12500000    0.37500000    0.00000000          2/16
   4:     0.37500000   -0.37500000    0.00000000          2/16
   5:     0.37500000   -0.12500000    0.00000000          2/16
   6:     0.37500000    0.12500000    0.00000000          2/16
   7:     0.37500000    0.37500000    0.00000000          2/16

Wave functions: Plane wave expansion
  Cutoff energy: 600.000 eV
  Number of coefficients (min, max): 63070, 63184
  Pulay-stress correction: 0.000000 eV/Ang^3 (de/decut=0.000000)
  Using FFTW library
  ScaLapack parameters: grid=2x2, blocksize=64
  Wavefunction extrapolation:
    Improved wavefunction reuse through dual PAW basis

Occupation numbers: Fermi-Dirac: width=0.1000 eV

Eigensolver
   Davidson(niter=2)

Densities:
  Coarse grid: 45*48*175 grid
  Fine grid: 90*96*350 grid
  Total Charge: 0.000000

Density mixing:
  Method: separate
  Backend: pulay
  Linear mixing parameter: 0.05
  Mixing with 5 old densities
  Damping of long wave oscillations: 50

Hamiltonian:
  XC and Coulomb potentials evaluated on a 90*96*350 grid
  Using the BEEF-vdW Exchange-Correlation functional
  External potential:
    NoExternalPotential

XC parameters: BEEF-vdW with 2 nearest neighbor stencil

Total number of cores used: 32
Parallelization over k-points: 8
Domain decomposition: 1 x 1 x 4
                      2 x 2 x 8 (xc only)

Number of atoms: 60
Number of atomic orbitals: 888
Number of bands in calculation: 386
Number of valence electrons: 636
Bands to converge: occupied

... initialized

Initializing position-dependent things.

Density initialized from atomic densities
Creating initial wave functions:
  386 bands from LCAO basis set

                         Cl
                Cl

        Cl Cu    Cu     Cu
               Cu    Cu     Cu
         Cu    Cu     Cu
       Cu    Cu     Cu    Cu
              Cu
           CCu   CCu    Cu
         Cu    CCu   CCu    Cu

       Cu    CCu    Cu    Cu
           Cu    CCu    Cu
               Cu    Cu     Cu
         Cu     Cu    Cu
       Cu    Cu     Cu    Cu
              Cu    Cu
           Cu     Cu    Cu
                   Cl

[...]

Positions:
   0 Cu     1.851874    1.842086   10.044767    ( 0.0000,  0.0000,  0.0000)
   1 Cu     0.572048    0.518337   11.854739    ( 0.0000,  0.0000,  0.0000)
   2 Cu     3.208369    0.549454   11.826759    ( 0.0000,  0.0000,  0.0000)
   3 Cu     1.885044    1.836608   13.699605    ( 0.0000,  0.0000,  0.0000)
   4 Cu     0.579320    0.526826   15.560947    ( 0.0000,  0.0000,  0.0000)
   5 Cu     3.185437    0.522508   15.555968    ( 0.0000,  0.0000,  0.0000)
   6 Cu     1.901068    1.854575   17.424612    ( 0.0000,  0.0000,  0.0000)
   7 Cu     0.575906    0.561899   19.206760    ( 0.0000,  0.0000,  0.0000)
   8 Cu     3.188310    0.488633   19.210481    ( 0.0000,  0.0000,  0.0000)
   9 Cu     0.574574    3.144633   11.846476    ( 0.0000,  0.0000,  0.0000)
  10 Cu     0.575916    3.143785   15.552326    ( 0.0000,  0.0000,  0.0000)
  11 Cu     0.546349    3.145891   19.206137    ( 0.0000,  0.0000,  0.0000)
  12 Cu     7.147069    1.821677   10.043621    ( 0.0000,  0.0000,  0.0000)
  13 Cu     5.794000    0.540777   11.820405    ( 0.0000,  0.0000,  0.0000)
  14 Cu     7.114080    1.831917   13.694773    ( 0.0000,  0.0000,  0.0000)
  15 Cu     5.808982    0.523918   15.556714    ( 0.0000,  0.0000,  0.0000)
  16 Cu     7.113100    1.827061   17.396972    ( 0.0000,  0.0000,  0.0000)
  17 Cu     5.807880    0.526790   19.217827    ( 0.0000,  0.0000,  0.0000)
  18 Cu     4.494064    1.763231    9.932089    ( 0.0000,  0.0000,  0.0000)
  19 Cu     4.496146    4.525263    9.931071    ( 0.0000,  0.0000,  0.0000)
  20 Cu     3.207669    3.147945   11.830838    ( 0.0000,  0.0000,  0.0000)
  21 Cu     5.791432    3.139321   11.831411    ( 0.0000,  0.0000,  0.0000)
  22 Cu     4.501104    1.833097   13.705422    ( 0.0000,  0.0000,  0.0000)
  23 Cu     4.500286    4.451342   13.700374    ( 0.0000,  0.0000,  0.0000)
  24 Cu     3.191019    3.143173   15.550169    ( 0.0000,  0.0000,  0.0000)
  25 Cu     5.806714    3.142761   15.552225    ( 0.0000,  0.0000,  0.0000)
  26 Cu     4.483820    1.848780   17.430757    ( 0.0000,  0.0000,  0.0000)
  27 Cu     4.483576    4.446716   17.420218    ( 0.0000,  0.0000,  0.0000)
  28 Cu     3.195113    3.070202   19.320757    ( 0.0000,  0.0000,  0.0000)
  29 Cu     5.840799    3.127025   19.209886    ( 0.0000,  0.0000,  0.0000)
  30 Cu     1.850636    4.467419   10.041562    ( 0.0000,  0.0000,  0.0000)
  31 Cu     1.883456    7.067453   10.032493    ( 0.0000,  0.0000,  0.0000)
  32 Cu     0.578168    5.767618   11.853682    ( 0.0000,  0.0000,  0.0000)
  33 Cu     3.207330    5.746015   11.820678    ( 0.0000,  0.0000,  0.0000)
  34 Cu     1.884398    4.451712   13.698510    ( 0.0000,  0.0000,  0.0000)
  35 Cu     1.882140    7.070634   13.694193    ( 0.0000,  0.0000,  0.0000)
  36 Cu     0.577138    5.762455   15.555937    ( 0.0000,  0.0000,  0.0000)
  37 Cu     3.190200    5.761333   15.545038    ( 0.0000,  0.0000,  0.0000)
  38 Cu     1.899950    4.455283   17.419419    ( 0.0000,  0.0000,  0.0000)
  39 Cu     1.897387    7.053708   17.430112    ( 0.0000,  0.0000,  0.0000)
  40 Cu     0.544416    5.772752   19.207193    ( 0.0000,  0.0000,  0.0000)
  41 Cu     3.197353    5.832220   19.317966    ( 0.0000,  0.0000,  0.0000)
  42 Cu     7.144990    4.448863   10.045121    ( 0.0000,  0.0000,  0.0000)
  43 Cu     7.115261    7.033008   10.044024    ( 0.0000,  0.0000,  0.0000)
  44 Cu     5.790284    5.740371   11.826573    ( 0.0000,  0.0000,  0.0000)
  45 Cu     7.115409    4.450638   13.698320    ( 0.0000,  0.0000,  0.0000)
  46 Cu     7.111993    7.067752   13.689826    ( 0.0000,  0.0000,  0.0000)
  47 Cu     5.806194    5.757852   15.551058    ( 0.0000,  0.0000,  0.0000)
  48 Cu     7.116689    4.449777   17.404260    ( 0.0000,  0.0000,  0.0000)
  49 Cu     7.119110    7.076103   17.395949    ( 0.0000,  0.0000,  0.0000)
  50 Cu     5.839650    5.752596   19.206190    ( 0.0000,  0.0000,  0.0000)
  51 Cu     4.502840    7.106124   10.040718    ( 0.0000,  0.0000,  0.0000)
  52 Cu     4.505854    7.072213   13.694900    ( 0.0000,  0.0000,  0.0000)
  53 Cu     4.482985    7.045347   17.423899    ( 0.0000,  0.0000,  0.0000)
  54 Cl     3.111134    4.453599   21.202893    ( 0.0000,  0.0000,  0.0000)
  55 Cl     4.580310    3.143724    8.048163    ( 0.0000,  0.0000,  0.0000)
  56 Cl     1.867046    5.767436    8.237027    ( 0.0000,  0.0000,  0.0000)
  57 Cl     0.561128    1.853895   21.006449    ( 0.0000,  0.0000,  0.0000)
  58 Cl     5.840224    7.039810   21.008038    ( 0.0000,  0.0000,  0.0000)
  59 Cl     7.093286    0.367959    8.057112    ( 0.0000,  0.0000,  0.0000)

Unit cell:
           periodic     x           y           z      points  spacing
  1. axis:    yes    7.851007    0.000000    0.000000    45     0.1655
  2. axis:    yes    2.617002    7.851007    0.000000    48     0.1636
  3. axis:    yes    0.000000    0.000000   30.683867   175     0.1753

  Lengths:   7.851007   8.275688  30.683867
  Angles:   90.000000  90.000000  71.565053

Effective grid spacing dv^(1/3) = 0.1710

     iter     time        total  log10-change:
                         energy  eigst   dens
iter:   1 14:40:45 -4412.297258
iter:   2 14:41:58 -4340.205115  -0.37  -0.99
iter:   3 14:43:00 -4320.219741  -1.26  -1.25
iter:   4 14:43:52 -4317.052614  -1.62  -1.34
iter:   5 14:44:45 -4313.766766  -1.62  -1.44
iter:   6 14:45:31 -4309.541586  -1.70  -1.53
[...]
             CCu    Cu    Cu
        Cu           Cu
            Cul   Cu     Cu
                   Cl

[...]

                 Cl
        Cl  Cu    Cu     Cu
                Cu    Cu     Cu
          Cu    Cu     Cu
        Cu    CCu   Cu     Cu
                     Cu
            Cu    CCu    Cu
          Cu    Cu    CCu    Cu

        Cu    CCu   CCu    Cu
            Cu    CCu   CCu
                      Cu     Cu
          Cu    Cu     Cu
              CCu    Cu    Cu
        Cu           Cu
            Cul    Cu    Cu
                    Cl

[...]

        Cu    CCu   CCu    Cu
            Cu    CCu   CCu
                      Cu     Cu
          Cu    Cu     Cu
              CCu    Cu    Cu
        Cu           Cu
            Cul    Cu    Cu
                    Cl

[...]

                 Cl
        Cl  Cu    Cu     Cu
                Cu    Cu     Cu
          Cu    Cu     Cu
        Cu    CCu   Cu     Cu
                     Cu
            Cu    CCu    Cu
          Cu    Cu    CCu    Cu

        Cu    CCu   CCu    Cu
            Cu    CCu    Cu
                      Cu     Cu
          Cu    Cu     Cu
              Cu     Cu    Cu
        Cu     Cu    Cu
            Cul    Cu    Cu
                    Cl

[...]

                 Cl
        Cl  Cu    Cu    Cu
                Cu    Cu    Cu
          Cu    Cu     Cu
        Cu    CCu   Cu     Cu
                     Cu
            Cu    CCu   CCu
          Cu    Cu    CCu    Cu

        Cu    CCu   CCu    Cu
            Cu    CCu   CCu
                      Cu    Cu
          Cu    Cu     Cu
              Cu    Cu     Cu
        Cu     Cu    Cu
            Cul   Cu     Cu
                    Cl

[...]

                 Cl
        Cl  Cu    Cu     Cu
                Cu    Cu     Cu
          Cu     Cu    Cu
        Cu    CCu    Cu    Cu
            Cu    Cu Cu
             Cu    Cu    CCu
          Cu    CCu   CCu    Cu

        Cu    CCu    Cu    Cu
            CCu   CCu    CCu
                       Cu    Cu
          Cu    CCu    Cu
              Cu     Cu    Cu
        Cu     Cu    Cu
            Cul    Cu    Cu
                    Cl

[...]

                 Cl
        Cl  Cu    Cu     Cu
                Cu    Cu     Cu
          Cu     Cu    Cu
        Cu    CCu    Cu    Cu
            Cu    Cu Cu
             Cu    Cu    Cu
          Cu    CCu   CCu    Cu

         Cu   CCu    Cu    Cu
            CCu   CCu    Cu
                      Cu     Cu
          Cu    CCu    Cu
              Cu     Cu    Cu
        Cu     Cu    Cu
            Cu     Cu    Cu
                    Cl

[...]

                  Cl
        Cl  Cu     Cu    Cu
                Cu     Cu    Cu
           Cu    Cu    Cu
         Cu    Cu    Cu    Cu
                   Cu Cu
            CCu    Cu    CCu
          Cu    CCu    Cu    Cu

         Cu    Cu    CCu   Cu
            CCu    Cu    CCu
                       Cu    Cu
          Cu    CCu    Cu
               Cu    Cu     Cu
         Cu    Cu     Cu
            CCu    Cu     Cu
                    Cl

[...]

         Cu    Cu    CCu   Cu
            CCu    Cu    CCu
                             Cu
           Cu   CCu    Cu
               Cu    Cu    Cu
         Cu    Cu    Cu
            CCu    Cu    Cu
                    Cl

[...]

                  Cl
        Cl  Cu     Cu    Cu
                 Cu    Cu     Cu
           Cu    Cu     Cu
         Cu    CCu   CCu    Cu

             Cu    CCu   CCu
           Cu    Cu    CCu    Cu

         Cu    CCu   CCu    Cu
             Cu    CCu    Cu
                              Cu
           Cu    Cu    CCu
               Cu     Cu    Cu
         Cu    Cu     Cu
            CCu    Cu     Cu

[...]

         Cu    Cu    CCu   Cu
            CCu    Cu    CCu
                             Cu
          Cu    CCu    Cu
               Cu    Cu    Cu
         Cu    Cu    Cu
            CCu    Cu    Cu
                    Cl

[...]

                  Cl
        Cl  Cu     Cu    Cu
                Cu     Cu    Cu
           Cu    Cu    Cu
         Cu    Cu    Cu    Cu
                     Cu
            CCu    Cu    CCu
           Cu   CCu    Cu    Cu

         Cu    Cu    Cu    Cu
            CCu    Cu    CCu
                             Cu
           Cu   CCu    Cu
               Cu    Cu    Cu
         Cu    Cu    Cu
            CCu    Cu    Cu
                    Cl

[...]

        Cl  Cu    Cu     Cu
          Cu    CCu   CCu    Cu

         Cu   CCu    CCu   Cu
            CCu   CCu    CCu

          Cu    CCu   CCu    Cu
         Cu   CCu    CCu   Cu

            CCu   CCu    CCu
          Cu    CCu   CCu    Cu

         Cu    Cu    CCu   Cu
            CCu    Cu     Cu

[...]

           Cu   CCu   CCu    Cu
         Cu    Cu    CCu   Cu

[...]

         Cu    Cu    CCu   Cu
            CCu    Cu     Cu

[...]

                   Cl
        Cl   Cu     Cu    Cu
                 Cu     Cu    Cu
           Cu     Cu    Cu
               CCu    CCu    Cu
          Cu
             CCu    Cu    CCu
           Cu    CCu    Cu    Cu

          Cu    Cu    CCu   Cu
             CCu    Cu    CCu
                 Cu     Cu    Cu
           Cu     Cu    Cu
          Cu   Cu     Cu    Cu
             Cl Cu     Cu
              Cu    Cu     Cu
                     Cl

[...]

             Cu    CCu    Cu
           Cu    Cu    CCu    Cu

         Cu    CCu   CCu    Cu
             Cu    CCu   CCu
                 Cu    Cu     Cu
           Cu    Cu     Cu
         Cu    Cu    Cu     Cu
                Cu    Cu
            CCu     Cu    Cu
                     Cl

[...]

         Cu    Cu    CCu   Cu
            CCu   CCu    CCu

           Cu   CCu   CCu    Cu
         Cu    Cu    CCu   Cu

[...]

         Cu    CCu   CCu   Cu
            CCu    Cu     Cu

[...]

                  Cl
        Cl   Cu    Cu    Cu
                 Cu    Cu     Cu
           Cu     Cu    Cu
         Cu    CCu    Cu    Cu

             Cu    CCu    Cu
           Cu    Cu    CCu    Cu

         Cu    CCu   CCu    Cu
             Cu    CCu   CCu
                 Cu    Cu     Cu
           Cu    Cu     Cu
               Cu    Cu     Cu
         Cu     Cu    Cu
            CCu     Cu    Cu
                     Cl

[...]

                   Cl
        Cl   Cu     Cu    Cu
                 Cu     Cu    Cu
            Cu    Cu    Cu
          Cu   CCu    CCu    Cu

             CCu    Cu    CCu
           Cu    CCu    Cu    Cu

          Cu    Cu    CCu    Cu
             CCu    Cu    CCu
                 Cu     Cu    Cu
           Cu     Cu    Cu
               Cu     Cu    Cu
          Cu    Cu     Cu
             CCu    Cu     Cu
                     Cl

[...]

                   Cl
        Cl   Cu     Cu    Cu
                 Cu     Cu    Cu
            Cu    Cu    Cu
          Cu    Cu    CCu   Cu

[...]

                   Cl
        Cl   Cu     Cu    Cu
                 Cu     Cu    Cu
            Cu    Cu    Cu
          Cu    Cu    CCu   Cu

             CCu    Cu    CCu
            Cu   CCu    Cu    Cu

          Cu    Cu    CCu   Cu
             CCu    Cu    CCu
                 Cu     Cu    Cu
            Cu    Cu    Cu
                Cu    Cu    Cu
          Cu    Cu     Cu
             CCu    Cu     Cu
                     Cl

[...]

          Cu   CCu   CCu    Cu
            ClCu    Cu    Cu

[...]

          Cu   CCu   CuCu   Cu
            ClCu    Cu    Cu

[...]

          Cu   CCu    CCu   Cu
             CCu   CCu   CCu

[...]

System changes: positions

Initializing position-dependent things.

Density initialized from wave functions

[...]

        Cl   Cu    Cu    Cu
           Cu    CCu   CCu   Cu

          Cu   CCu    CCu   Cu
             CCu   CCu    Cu

           Cu    CCu   CCu   Cu
          Cu   CCu    CCu   Cu

             CCu   CCu   CCu
           Cu    CCu   CCu   Cu

          Cu   CCu   CuCu   Cu
            ClCu    Cu     Cu

                     Cl
                             Cl

Positions:
   0 Cu     1.900877    1.856514   10.017242    ( 0.0000,  0.0000,  0.0000)
   1 Cu     0.572263    0.506565   11.883755    ( 0.0000,  0.0000,  0.0000)
   2 Cu     3.213566    0.524461   11.810387    ( 0.0000,  0.0000,  0.0000)
   3 Cu     1.889115    1.825608   13.690330    ( 0.0000,  0.0000,  0.0000)
   4 Cu     0.584854    0.519108   15.550589    ( 0.0000,  0.0000,  0.0000)
   5 Cu     3.184788    0.533419   15.543887    ( 0.0000,  0.0000,  0.0000)
   6 Cu     1.906740    1.841604   17.433509    ( 0.0000,  0.0000,  0.0000)
   7 Cu     0.597993    0.515174   19.244336    ( 0.0000,  0.0000,  0.0000)
   8 Cu     3.175267    0.534898   19.232327    ( 0.0000,  0.0000,  0.0000)
   9 Cu     0.559888    3.144484   11.843104    ( 0.0000,  0.0000,  0.0000)
  10 Cu     0.579611    3.130920   15.542694    ( 0.0000,  0.0000,  0.0000)
  11 Cu     0.605187    3.167520   19.240997    ( 0.0000,  0.0000,  0.0000)
  12 Cu     7.135788    1.827202   10.025218    ( 0.0000,  0.0000,  0.0000)
  13 Cu     5.805403    0.528179   11.822120    ( 0.0000,  0.0000,  0.0000)
  14 Cu     7.112034    1.834420   13.700178    ( 0.0000,  0.0000,  0.0000)
  15 Cu     5.806294    0.526463   15.535822    ( 0.0000,  0.0000,  0.0000)
  16 Cu     7.116876    1.817165   17.365912    ( 0.0000,  0.0000,  0.0000)
  17 Cu     5.810954    0.531834   19.257695    ( 0.0000,  0.0000,  0.0000)
  18 Cu     4.527469    1.781923    9.952560    ( 0.0000,  0.0000,  0.0000)
  19 Cu     4.446681    4.494335    9.957050    ( 0.0000,  0.0000,  0.0000)
  20 Cu     3.172752    3.136524   11.818513    ( 0.0000,  0.0000,  0.0000)
  21 Cu     5.815665    3.143451   11.817007    ( 0.0000,  0.0000,  0.0000)
  22 Cu     4.499023    1.844176   13.694763    ( 0.0000,  0.0000,  0.0000)
  23 Cu     4.490542    4.443116   13.684167    ( 0.0000,  0.0000,  0.0000)
  24 Cu     3.193725    3.148917   15.559375    ( 0.0000,  0.0000,  0.0000)
  25 Cu     5.805378    3.151094   15.540772    ( 0.0000,  0.0000,  0.0000)
  26 Cu     4.509060    1.841267   17.420119    ( 0.0000,  0.0000,  0.0000)
  27 Cu     4.508951    4.455057   17.424769    ( 0.0000,  0.0000,  0.0000)
  28 Cu     3.232542    3.096288   19.288381    ( 0.0000,  0.0000,  0.0000)
  29 Cu     5.835467    3.147335   19.217145    ( 0.0000,  0.0000,  0.0000)
  30 Cu     1.847275    4.453202   10.028251    ( 0.0000,  0.0000,  0.0000)
  31 Cu     1.880886    7.068533    9.994396    ( 0.0000,  0.0000,  0.0000)
  32 Cu     0.568878    5.772394   11.881654    ( 0.0000,  0.0000,  0.0000)
  33 Cu     3.180294    5.754200   11.822697    ( 0.0000,  0.0000,  0.0000)
  34 Cu     1.878564    4.442481   13.703544    ( 0.0000,  0.0000,  0.0000)
  35 Cu     1.882636    7.065330   13.709831    ( 0.0000,  0.0000,  0.0000)
  36 Cu     0.571970    5.754952   15.545914    ( 0.0000,  0.0000,  0.0000)
  37 Cu     3.185049    5.746699   15.548878    ( 0.0000,  0.0000,  0.0000)
  38 Cu     1.870194    4.448974   17.429250    ( 0.0000,  0.0000,  0.0000)
  39 Cu     1.880612    7.060006   17.425124    ( 0.0000,  0.0000,  0.0000)
  40 Cu     0.554241    5.757576   19.223655    ( 0.0000,  0.0000,  0.0000)
  41 Cu     3.166383    5.804886   19.295823    ( 0.0000,  0.0000,  0.0000)
  42 Cu     7.074058    4.419609   10.002989    ( 0.0000,  0.0000,  0.0000)
  43 Cu     7.097838    7.068794    9.997862    ( 0.0000,  0.0000,  0.0000)
  44 Cu     5.778975    5.751784   11.808925    ( 0.0000,  0.0000,  0.0000)
  45 Cu     7.103793    4.461115   13.704971    ( 0.0000,  0.0000,  0.0000)
  46 Cu     7.103417    7.071377   13.697273    ( 0.0000,  0.0000,  0.0000)
  47 Cu     5.795469    5.766530   15.558754    ( 0.0000,  0.0000,  0.0000)
  48 Cu     7.124546    4.447240   17.404994    ( 0.0000,  0.0000,  0.0000)
  49 Cu     7.120085    7.086916   17.361920    ( 0.0000,  0.0000,  0.0000)
  50 Cu     5.790407    5.740850   19.220760    ( 0.0000,  0.0000,  0.0000)
  51 Cu     4.513070    7.061433   10.000780    ( 0.0000,  0.0000,  0.0000)
  52 Cu     4.504014    7.057782   13.704614    ( 0.0000,  0.0000,  0.0000)
  53 Cu     4.471979    7.064756   17.433439    ( 0.0000,  0.0000,  0.0000)
  54 Cl     3.198499    4.442979   21.188809    ( 0.0000,  0.0000,  0.0000)
  55 Cl     4.520410    3.144412    8.058729    ( 0.0000,  0.0000,  0.0000)
  56 Cl     0.424982    5.658992    8.267513    ( 0.0000,  0.0000,  0.0000)
  57 Cl    -0.566424    1.870591   20.974059    ( 0.0000,  0.0000,  0.0000)
  58 Cl     7.007721    7.027676   20.964277    ( 0.0000,  0.0000,  0.0000)
  59 Cl     8.559316    0.612429    8.266834    ( 0.0000,  0.0000,  0.0000)

Unit cell:
           periodic     x           y           z      points  spacing
  1. axis:    yes    7.851007    0.000000    0.000000    45     0.1655
  2. axis:    yes    2.617002    7.851007    0.000000    48     0.1636
  3. axis:    yes    0.000000    0.000000   30.683867   175     0.1753

  Lengths:   7.851007   8.275688  30.683867
  Angles:   90.000000  90.000000  71.565053

Effective grid spacing dv^(1/3) = 0.1710

     iter     time        total  log10-change:
                         energy  eigst   dens
iter:   1 22:11:36 -4309.779820  -3.56
iter:   2 22:12:46 -4309.781897  -3.70  -2.83
iter:   3 22:13:40 -4309.711650c -4.39  -2.85
iter:   4 22:14:30 -4309.709598c -5.08  -3.42
iter:   5 22:15:26 -4309.709342c -5.12  -3.65
iter:   6 22:16:10 -4309.709067c -5.97  -3.96
iter:   7 22:16:53 -4309.709166c -5.84  -4.12c
iter:   8 22:17:37 -4309.709146c -7.17  -4.24c
iter:   9 22:18:23 -4309.709037c -6.30  -4.34c
iter:  10 22:19:10 -4309.709040c -6.83  -4.60c
iter:  11 22:19:54 -4309.709033c -6.93  -4.60c
iter:  12 22:20:38 -4309.709032c -8.30c -4.87c

Converged after 12 iterations.

Dipole moment: (-23.273832, -31.432689, 0.006744) |e|*Ang

Energy contributions relative to reference atoms: (reference = -2506488.095795)

Kinetic:       +442.989645
Potential:     -482.382171
External:        +0.000000
XC:            -4269.191099
Entropy (-ST):   -0.610530
Local:           -0.820142
Free energy:   -4310.014297
Extrapolated:  -4309.709032

Showing only first 2 kpts
 Kpt  Band  Eigenvalues  Occupancy
  0   316     -0.78205    1.94801
  0   317     -0.56235    1.61268
  0   318     -0.43294    1.06611
  0   319     -0.41556    0.97929

  1   316     -0.76765    1.94020
  1   317     -0.62517    1.77283
  1   318     -0.41699    0.98641
  1   319     -0.40207    0.91207

Fermi level: -0.41970

No gap

Forces in eV/Ang:
  0 Cu   -0.00001    0.00112    0.00440
  1 Cu   -0.00447   -0.00420   -0.00444
  2 Cu    0.00469    0.00789   -0.00170
  3 Cu    0.00451    0.00208   -0.00367
  4 Cu   -0.00196    0.00039    0.00153
  5 Cu   -0.00217    0.00184   -0.00358
  6 Cu   -0.00247   -0.00060   -0.00035
  7 Cu   -0.00677    0.00556    0.00456
  8 Cu    0.00253   -0.00920    0.01081
  9 Cu    0.00446   -0.00044   -0.00908
 10 Cu    0.00131    0.00006   -0.00678
 11 Cu   -0.00818    0.00018    0.00101
 12 Cu   -0.00985    0.01231   -0.00651
 13 Cu   -0.00059    0.00561   -0.00645
 14 Cu   -0.00121    0.00681   -0.00198
 15 Cu   -0.00188   -0.00060    0.00072
 16 Cu   -0.00523   -0.00070    0.00285
 17 Cu    0.00177   -0.00916   -0.00398
 18 Cu   -0.00972    0.00194   -0.00907
 19 Cu    0.01403   -0.00054   -0.00714
 20 Cu    0.00547    0.00178   -0.00362
 21 Cu   -0.00378   -0.00465   -0.00023
 22 Cu   -0.00404    0.00136   -0.00184
 23 Cu    0.00153   -0.00161   -0.00518
 24 Cu   -0.00164    0.00184    0.00191
 25 Cu   -0.00206   -0.00229   -0.00206
 26 Cu   -0.00495    0.00472    0.00512
 27 Cu    0.00193   -0.00042    0.00501
 28 Cu   -0.00469    0.00397    0.00219
 29 Cu   -0.00515   -0.00256   -0.00287
 30 Cu    0.00808   -0.00521   -0.01157
 31 Cu   -0.00816   -0.00682   -0.00452
 32 Cu   -0.00227    0.00764   -0.00578
 33 Cu    0.00119   -0.00861    0.00069
 34 Cu    0.00893   -0.00553    0.00004
 35 Cu   -0.00251   -0.00270   -0.00256
 36 Cu    0.00923    0.00286   -0.00043
 37 Cu    0.00610    0.00059    0.00450
 38 Cu   -0.00259   -0.00267    0.00583
 39 Cu    0.00850    0.00027    0.00545
 40 Cu    0.00621   -0.00092   -0.00189
 41 Cu   -0.00242   -0.00233   -0.00061
 42 Cu    0.00545    0.00283    0.00136
 43 Cu    0.00015   -0.00073    0.00094
 44 Cu    0.00490    0.00134   -0.00021
 45 Cu   -0.00155   -0.00256   -0.00777
 46 Cu   -0.00561    0.00319   -0.00856
 47 Cu    0.00140   -0.00232   -0.00508
 48 Cu   -0.00041   -0.00110    0.00339
 49 Cu    0.00115    0.00135    0.00228
 50 Cu    0.00597    0.00312    0.01018
 51 Cu    0.00479   -0.00286    0.00148
 52 Cu    0.00165    0.00067   -0.00574
 53 Cu    0.00243    0.00004   -0.00361
 54 Cl    0.00190    0.00143    0.00701
 55 Cl   -0.00280    0.00410    0.00704
 56 Cl    0.00871    0.00463    0.01176
 57 Cl   -0.00302    0.01324   -0.00176
 58 Cl   -0.00677   -0.01915    0.00521
 59 Cl   -0.01318   -0.00841    0.00552