User:   thorkong@node036.cluster
Date:   Thu Apr 28 13:36:47 2022
Arch:   x86_64
Pid:    61287
Python: 3.6.12
gpaw:   /software/kemi/gpaw/19.8.1/gpaw
_gpaw:  /software/kemi/gpaw/19.8.1/bin/gpaw-python
ase:    /software/kemi/ase/3.19.0/ase (version 3.19.0)
numpy:  /opt/rh/rh-python36/root/usr/lib64/python3.6/site-packages/numpy (version 1.13.1)
scipy:  /opt/rh/rh-python36/root/usr/lib64/python3.6/site-packages/scipy (version 0.19.1)
units:  Angstrom and eV
cores:  32

Input parameters:
  basis: dzp
  kpts: [4 4 1]
  mode: {ecut: 600.0,
         gammacentered: False,
         name: pw}
  xc: BEEF-vdW

System changes: positions, numbers, cell, pbc, initial_charges, initial_magmoms

Initialize ...

Cu-setup:
  name: Copper
  id: f1c4d45d90492f1bbfdcb091e8418fdf
  Z: 29
  valence: 11
  core: 18
  charge: 0.0
  file: /software/kemi/gpaw-setups/0.9.20000/Cu.PBE.gz
  compensation charges: gauss, rc=0.33, lmax=2
  cutoffs: 2.06(filt), 2.43(core),
  valence states:
                energy  radius
    4s(1.00)    -4.609   1.164
    4p(0.00)    -0.698   1.164
    3d(10.00)    -5.039   1.058
    *s          22.603   1.164
    *p          26.513   1.164
    *d          22.172   1.058

  LCAO basis set for Cu:
    Name: dzp
    File: /software/kemi/gpaw-setups/0.9.20000/Cu.dzp.basis.gz
    Number of radial functions: 5
    Number of spherical harmonics: 15
      l=0, rc=8.9688 Bohr: 4s-sz confined orbital
      l=2, rc=5.1719 Bohr: 3d-sz confined orbital
      l=0, rc=5.3281 Bohr: 4s-dz split-valence wave
      l=2, rc=3.1406 Bohr: 3d-dz split-valence wave
      l=1, rc=8.9688 Bohr: p-type Gaussian polarization

Reference energy: -4322059.376747

Spin-paired calculation

Occupation numbers:
  Fermi-Dirac: width=0.1000 eV

Convergence criteria:
  Maximum total energy change: 0.0005 eV / electron
  Maximum integral of absolute density change: 0.0001 electrons
  Maximum integral of absolute eigenstate change: 4e-08 eV^2
  Maximum number of iterations: 333

Symmetries present (total): 2

  ( 1  0  0)  ( 1  0  0)
  ( 0  1  0)  ( 0 -1  0)
  ( 0  0  1)  ( 0  0  1)

16 k-points: 4 x 4 x 1 Monkhorst-Pack grid
4 k-points in the irreducible part of the Brillouin zone
       k-points in crystal coordinates                weights
   0:     0.12500000    0.12500000    0.00000000          4/16
   1:     0.12500000    0.37500000    0.00000000          4/16
   2:     0.37500000    0.12500000    0.00000000          4/16
   3:     0.37500000    0.37500000    0.00000000          4/16

Wave functions: Plane wave expansion
  Cutoff energy: 600.000 eV
  Number of coefficients (min, max): 88905, 88994
  Pulay-stress correction: 0.000000 eV/Ang^3 (de/decut=0.000000)
  Using Numpy's FFT
  ScaLapack parameters: grid=1x1, blocksize=None
  Wavefunction extrapolation:
    Improved wavefunction reuse through dual PAW basis

Eigensolver
   Davidson(niter=2, smin=None, normalize=True)

Densities:
  Coarse grid: 60*42*196 grid
  Fine grid: 120*84*392 grid
  Total Charge: 0.000000

Density mixing:
  Method: separate
  Backend: pulay
  Linear mixing parameter: 0.05
  Mixing with 5 old densities
  Damping of long wave oscillations: 50

Hamiltonian:
  XC and Coulomb potentials evaluated on a 120*84*392 grid
  Using the BEEF-vdW Exchange-Correlation functional

XC parameters: BEEF-vdW with 2 nearest neighbor stencil

Total number of cores used: 32
Parallelization over k-points: 4
Domain decomposition: 2 x 1 x 4

Number of atoms: 96
Number of atomic orbitals: 1440
Number of bands in calculation: 638
Bands to converge: occupied states only
Number of valence electrons: 1056

... initialized

Initializing position-dependent things.

Density initialized from atomic densities
Creating initial wave functions:
  638 bands from LCAO basis set

 |    |  Cu    Cu     Cu    Cu  |
 |  CuCu   CuCu  CuCu   CuCu    |
 |    |  Cu    Cu     Cu    Cu  |
 |Cu  CuCu   CuCu  CuCu   Cu    |
 |  Cu|  CuCu  CuCu   CuCu  Cu  |
 |Cu  CuCu   CuCu  CuCu   Cu    |
 |  Cu|  CuCu  CuCu   CuCu  Cu  |
 |Cu  | Cu     Cu    Cu         |
 |  CuCu CuCuCuCuCuCu CuCuCuCu  |
 |Cu  | Cu     Cu    Cu         |
 |  CuCu CuCuCuCuCuCu CuCuCuCu  |
 |CuCuCuCu CuCuCuCuCuCu CuCu    |
 |Cu  | Cu     Cu    Cu         |

Positions:
   0 Cu     2.893960    0.000000   10.000000    ( 0.0000,  0.0000,  0.0000)
   1 Cu     1.585459    1.850500   11.308501    ( 0.0000,  0.0000,  0.0000)
   2 Cu     4.202462    1.850500   11.308501    ( 0.0000,  0.0000,  0.0000)
   3 Cu     0.276958    0.000000   10.000000    ( 0.0000,  0.0000,  0.0000)
   4 Cu     0.276958    0.000000   12.617002    ( 0.0000,  0.0000,  0.0000)
   5 Cu     4.202462    1.850500   13.925503    ( 0.0000,  0.0000,  0.0000)
   6 Cu     1.585459    1.850500   13.925503    ( 0.0000,  0.0000,  0.0000)
   7 Cu     2.893960    0.000000   12.617002    ( 0.0000,  0.0000,  0.0000)
   8 Cu     2.893960    0.000000   15.234004    ( 0.0000,  0.0000,  0.0000)
   9 Cu     1.585459    1.850500   16.542505    ( 0.0000,  0.0000,  0.0000)
  10 Cu     4.202462    1.850500   16.542505    ( 0.0000,  0.0000,  0.0000)
  11 Cu     0.276958    0.000000   15.234004    ( 0.0000,  0.0000,  0.0000)
  12 Cu     0.276958    0.000000   17.851007    ( 0.0000,  0.0000,  0.0000)
  13 Cu     4.202462    1.850500   19.159508    ( 0.0000,  0.0000,  0.0000)
  14 Cu     1.585459    1.850500   19.159508    ( 0.0000,  0.0000,  0.0000)
  15 Cu     2.893960    0.000000   17.851007    ( 0.0000,  0.0000,  0.0000)
  16 Cu     2.893960    0.000000   20.468009    ( 0.0000,  0.0000,  0.0000)
  17 Cu     1.585459    1.850500   21.776510    ( 0.0000,  0.0000,  0.0000)
  18 Cu     4.202462    1.850500   21.776510    ( 0.0000,  0.0000,  0.0000)
  19 Cu     0.276958    0.000000   20.468009    ( 0.0000,  0.0000,  0.0000)
  20 Cu     0.276958    0.000000   23.085011    ( 0.0000,  0.0000,  0.0000)
  21 Cu     4.202462    1.850500   24.393512    ( 0.0000,  0.0000,  0.0000)
  22 Cu     1.585459    1.850500   24.393512    ( 0.0000,  0.0000,  0.0000)
  23 Cu     2.893960    0.000000   23.085011    ( 0.0000,  0.0000,  0.0000)
  24 Cu     2.893960    3.701000   10.000000    ( 0.0000,  0.0000,  0.0000)
  25 Cu     1.585459    5.551500   11.308501    ( 0.0000,  0.0000,  0.0000)
  26 Cu     4.202462    5.551500   11.308501    ( 0.0000,  0.0000,  0.0000)
  27 Cu     0.276958    3.701000   10.000000    ( 0.0000,  0.0000,  0.0000)
  28 Cu     0.276958    3.701000   12.617002    ( 0.0000,  0.0000,  0.0000)
  29 Cu     4.202462    5.551500   13.925503    ( 0.0000,  0.0000,  0.0000)
  30 Cu     1.585459    5.551500   13.925503    ( 0.0000,  0.0000,  0.0000)
  31 Cu     2.893960    3.701000   12.617002    ( 0.0000,  0.0000,  0.0000)
  32 Cu     2.893960    3.701000   15.234004    ( 0.0000,  0.0000,  0.0000)
  33 Cu     1.585459    5.551500   16.542505    ( 0.0000,  0.0000,  0.0000)
  34 Cu     4.202462    5.551500   16.542505    ( 0.0000,  0.0000,  0.0000)
  35 Cu     0.276958    3.701000   15.234004    ( 0.0000,  0.0000,  0.0000)
  36 Cu     0.276958    3.701000   17.851007    ( 0.0000,  0.0000,  0.0000)
  37 Cu     4.202462    5.551500   19.159508    ( 0.0000,  0.0000,  0.0000)
  38 Cu     1.585459    5.551500   19.159508    ( 0.0000,  0.0000,  0.0000)
  39 Cu     2.893960    3.701000   17.851007    ( 0.0000,  0.0000,  0.0000)
  40 Cu     2.893960    3.701000   20.468009    ( 0.0000,  0.0000,  0.0000)
  41 Cu     1.585459    5.551500   21.776510    ( 0.0000,  0.0000,  0.0000)
  42 Cu     4.202462    5.551500   21.776510    ( 0.0000,  0.0000,  0.0000)
  43 Cu     0.276958    3.701000   20.468009    ( 0.0000,  0.0000,  0.0000)
  44 Cu     0.276958    3.701000   23.085011    ( 0.0000,  0.0000,  0.0000)
  45 Cu     4.202462    5.551500   24.393512    ( 0.0000,  0.0000,  0.0000)
  46 Cu     1.585459    5.551500   24.393512    ( 0.0000,  0.0000,  0.0000)
  47 Cu     2.893960    3.701000   23.085011    ( 0.0000,  0.0000,  0.0000)
  48 Cu     8.127965    0.000000   10.000000    ( 0.0000,  0.0000,  0.0000)
  49 Cu     6.819464    1.850500   11.308501    ( 0.0000,  0.0000,  0.0000)
  50 Cu     9.436466    1.850500   11.308501    ( 0.0000,  0.0000,  0.0000)
  51 Cu     5.510963    0.000000   10.000000    ( 0.0000,  0.0000,  0.0000)
  52 Cu     5.510963    0.000000   12.617002    ( 0.0000,  0.0000,  0.0000)
  53 Cu     9.436466    1.850500   13.925503    ( 0.0000,  0.0000,  0.0000)
  54 Cu     6.819464    1.850500   13.925503    ( 0.0000,  0.0000,  0.0000)
  55 Cu     8.127965    0.000000   12.617002    ( 0.0000,  0.0000,  0.0000)
  56 Cu     8.127965    0.000000   15.234004    ( 0.0000,  0.0000,  0.0000)
  57 Cu     6.819464    1.850500   16.542505    ( 0.0000,  0.0000,  0.0000)
  58 Cu     9.436466    1.850500   16.542505    ( 0.0000,  0.0000,  0.0000)
  59 Cu     5.510963    0.000000   15.234004    ( 0.0000,  0.0000,  0.0000)
[...]
  81 Cu     6.819464    5.551500   16.542505    ( 0.0000,  0.0000,  0.0000)
  82 Cu     9.436466    5.551500   16.542505    ( 0.0000,  0.0000,  0.0000)
  83 Cu     5.510963    3.701000   15.234004    ( 0.0000,  0.0000,  0.0000)
  84 Cu     5.510963    3.701000   17.851007    ( 0.0000,  0.0000,  0.0000)
  85 Cu     9.436466    5.551500   19.159508    ( 0.0000,  0.0000,  0.0000)
  86 Cu     6.819464    5.551500   19.159508    ( 0.0000,  0.0000,  0.0000)
  87 Cu     8.127965    3.701000   17.851007    ( 0.0000,  0.0000,  0.0000)
  88 Cu     8.127965    3.701000   20.468009    ( 0.0000,  0.0000,  0.0000)
  89 Cu     6.819464    5.551500   21.776510    ( 0.0000,  0.0000,  0.0000)
  90 Cu     9.436466    5.551500   21.776510    ( 0.0000,  0.0000,  0.0000)
  91 Cu     5.510963    3.701000   20.468009    ( 0.0000,  0.0000,  0.0000)
  92 Cu     5.510963    3.701000   23.085011    ( 0.0000,  0.0000,  0.0000)
  93 Cu     9.436466    5.551500   24.393512    ( 0.0000,  0.0000,  0.0000)
  94 Cu     6.819464    5.551500   24.393512    ( 0.0000,  0.0000,  0.0000)
  95 Cu     8.127965    3.701000   23.085011    ( 0.0000,  0.0000,  0.0000)

Unit cell:
           periodic     x           y           z      points  spacing
  1. axis:    yes   10.468009    0.000000    0.000000    60     0.1745
  2. axis:    yes    0.000000    7.402000    0.000000    42     0.1762
  3. axis:    yes    0.000000    0.000000   34.393512   196     0.1755

  Lengths:  10.468009   7.402000  34.393512
  Angles:   90.000000  90.000000  90.000000

Effective grid spacing dv^(1/3) = 0.1754

                     log10-error:    total        iterations:
           time      wfs    density  energy       fermi  poisson
iter:   1  13:39:53  +0.09   +inf  -7318.574745    3
iter:   2  13:41:17  -1.64  -1.21  -7299.483488    34
iter:   3  13:42:42  -0.99  -1.28  -7295.747881    36
iter:   4  13:44:05  -1.27  -1.43  -7272.765174    38
iter:   5  13:45:29  -2.42  -1.64  -7272.229353    3
iter:   6  13:46:53  -1.61  -1.67  -7290.706490    36
iter:   7  13:48:16  -2.13  -1.67  -7271.129536    3
iter:   8  13:49:40  -2.90  -1.96  -7271.300136    3
iter:   9  13:51:03  -2.63  -1.94  -7269.086644    3
iter:  10  13:52:27  -3.03  -2.09  -7270.137526    3
iter:  11  13:53:51  -3.69  -2.11  -7269.429347    3
iter:  12  13:55:14  -2.56  -2.21  -7268.997331    32
iter:  13  13:56:38  -2.96  -2.32  -7267.996218    3
[...]
iter:  24  14:11:47  -5.59  -3.58  -7267.935990    2
iter:  25  14:13:09  -5.72  -3.57  -7267.934543    2
iter:  26  14:14:33  -6.03  -3.69  -7267.933700    2
iter:  27  14:15:56  -6.82  -3.92  -7267.933445    2
iter:  28  14:17:19  -6.17  -4.02  -7267.933193    2
iter:  29  14:18:42  -6.95  -4.27  -7267.933193    2
iter:  30  14:20:05  -8.14  -4.51  -7267.933151    2

Converged after 30 iterations.

Dipole moment: (-93.851264, 0.000000, 0.001506) |e|*Ang

Energy contributions relative to reference atoms: (reference = -4322059.376747)

Kinetic:       +649.785944
Potential:     -734.394962
External:        +0.000000
XC:            -7181.462359
Entropy (-ST):   -1.007590
Local:           -1.357977
Free energy:   -7268.436946
Extrapolated:  -7267.933151

Fermi level: 0.75525

Showing only first 2 kpts
 Kpt  Band  Eigenvalues  Occupancy
  0   526      0.53572    0.44991
  0   527      0.61366    0.40234
  0   528      0.64601    0.37442
  0   529      0.71903    0.29478

  1   526      0.83342    0.15698
  1   527      0.94899    0.06297
  1   528      0.95363    0.06045
  1   529      1.09337    0.01644

No gap

Forces in eV/Ang:
  0 Cu    0.00047    0.00000    0.26652
  1 Cu    0.00019   -0.00000   -0.27716
  2 Cu    0.00019    0.00000   -0.27716
  3 Cu    0.00047    0.00000    0.26652
  4 Cu    0.00033    0.00000   -0.01111
  5 Cu    0.00011   -0.00000   -0.02196
  6 Cu    0.00011   -0.00000   -0.02196
  7 Cu    0.00033    0.00000   -0.01111
  8 Cu    0.00024    0.00000    0.02126
  9 Cu    0.00004    0.00000   -0.01951
 10 Cu    0.00004   -0.00000   -0.01951
 11 Cu    0.00024    0.00000    0.02126
 12 Cu    0.00021    0.00000    0.01937
 13 Cu    0.00006    0.00000   -0.02092
 14 Cu    0.00006    0.00000   -0.02092
 15 Cu    0.00021    0.00000    0.01937
 16 Cu    0.00028    0.00000    0.02272
 17 Cu    0.00015   -0.00000    0.01214
 18 Cu    0.00015   -0.00000    0.01214
 19 Cu    0.00028    0.00000    0.02272
 20 Cu    0.00037    0.00000    0.27851
 21 Cu    0.00025   -0.00000   -0.26943
 22 Cu    0.00025    0.00000   -0.26943
 23 Cu    0.00037    0.00000    0.27851
 24 Cu    0.00047    0.00000    0.26652
 25 Cu    0.00019    0.00000   -0.27716
 26 Cu    0.00019   -0.00000   -0.27716
 27 Cu    0.00047    0.00000    0.26652
 28 Cu    0.00033    0.00000   -0.01111
 29 Cu    0.00011    0.00000   -0.02196
 30 Cu    0.00011    0.00000   -0.02196
 31 Cu    0.00033    0.00000   -0.01111
 32 Cu    0.00024    0.00000    0.02126
 33 Cu    0.00004   -0.00000   -0.01951
 34 Cu    0.00004    0.00000   -0.01951
 35 Cu    0.00024    0.00000    0.02126
 36 Cu    0.00021    0.00000    0.01937
 37 Cu    0.00006   -0.00000   -0.02092
 38 Cu    0.00006   -0.00000   -0.02092
 39 Cu    0.00021    0.00000    0.01937
 40 Cu    0.00028    0.00000    0.02272
 41 Cu    0.00015    0.00000    0.01214
 42 Cu    0.00015    0.00000    0.01214
 43 Cu    0.00028    0.00000    0.02272
 44 Cu    0.00037    0.00000    0.27851
 45 Cu    0.00025    0.00000   -0.26943
 46 Cu    0.00025   -0.00000   -0.26943
 47 Cu    0.00037    0.00000    0.27851
 48 Cu    0.00047    0.00000    0.26652
 49 Cu    0.00019   -0.00000   -0.27716
 50 Cu    0.00019    0.00000   -0.27716
 51 Cu    0.00047    0.00000    0.26652
 52 Cu    0.00033    0.00000   -0.01111
 53 Cu    0.00011    0.00000   -0.02196
 54 Cu    0.00011    0.00000   -0.02196
 55 Cu    0.00033    0.00000   -0.01111
 56 Cu    0.00024    0.00000    0.02126
 57 Cu    0.00004    0.00000   -0.01951
 58 Cu    0.00004   -0.00000   -0.01951
 59 Cu    0.00024    0.00000    0.02126
[...]
 81 Cu    0.00004   -0.00000   -0.01951
 82 Cu    0.00004    0.00000   -0.01951
 83 Cu    0.00024    0.00000    0.02126
 84 Cu    0.00021    0.00000    0.01937
 85 Cu    0.00006    0.00000   -0.02092
 86 Cu    0.00006    0.00000   -0.02092
 87 Cu    0.00021    0.00000    0.01937
 88 Cu    0.00028    0.00000    0.02272
 89 Cu    0.00015    0.00000    0.01214
 90 Cu    0.00015    0.00000    0.01214
 91 Cu    0.00028    0.00000    0.02272
 92 Cu    0.00037    0.00000    0.27851
 93 Cu    0.00025   -0.00000   -0.26943
 94 Cu    0.00025    0.00000   -0.26943
 95 Cu    0.00037    0.00000    0.27851

System changes: positions

[...]

Density initialized from wave functions
 |    |  Cu    Cu     Cu    Cu  |
 |  CuCu   CuCu  CuCu   CuCu    |
 |    |  Cu    Cu     Cu    Cu  |
 |Cu  CuCu   CuCu  CuCu   Cu    |
 |  Cu|  CuCu  CuCu   CuCu  Cu  |
 |Cu  CuCu   CuCu  CuCu   Cu    |
 |  Cu|  CuCu  CuCu   CuCu  Cu  |
 |Cu  | Cu     Cu    Cu         |
 |  CuCu CuCuCuCuCuCu CuCuCuCu  |
 |Cu  | Cu     Cu    Cu         |
 |  CuCu CuCuCuCuCuCu CuCuCuCu  |
 |CuCuCuCu CuCuCuCuCuCu CuCu    |
 |Cu  | Cu     Cu    Cu         |

[...]

Density initialized from wave functions
 |    |  Cu    Cu     Cu    Cu  |
 |  CuCu   CuCu  CuCu   CuCu    |
 |    |  Cu    Cu     Cu    Cu  |
 |CuCuCuCu CuCuCuCuCuCu CuCu    |
 |    |  Cu    Cu     Cu    Cu  |
 |Cu  CuCu   CuCu  CuCu   Cu    |
 |  Cu|  CuCu  CuCu   CuCu  Cu  |
 |Cu  | Cu     Cu    Cu         |
 |  CuCu CuCuCuCuCuCu CuCuCuCu  |
 |Cu  | Cu     Cu    Cu         |
 |  CuCu   CuCu  CuCu   CuCu    |
 |    |  Cu    Cu     Cu    Cu  |
 |CuCuCuCu CuCuCuCuCuCu CuCu    |
 |Cu  | Cu     Cu    Cu         |

[...]

System changes: positions

Initializing position-dependent things.

Density initialized from wave functions
 |    |  Cu    Cu     Cu    Cu  |
 |  CuCu   CuCu  CuCu   CuCu    |
 |    |  Cu    Cu     Cu    Cu  |
 |CuCuCuCu CuCuCuCuCuCu CuCu    |
 |    |  Cu    Cu     Cu    Cu  |
 |Cu  CuCu   CuCu  CuCu   Cu    |
 |  Cu|  CuCu  CuCu   CuCu  Cu  |
 |Cu  | Cu     Cu    Cu         |
 |  CuCu CuCuCuCuCuCu CuCuCuCu  |
 |Cu  | Cu     Cu    Cu         |
 |  CuCu   CuCu  CuCu   CuCu    |
 |    |  Cu    Cu     Cu    Cu  |
 |CuCuCuCu CuCuCuCuCuCu CuCu    |
 |Cu  | Cu     Cu    Cu         |

Positions:
   0 Cu     2.894078    0.000000   10.052672    ( 0.0000,  0.0000,  0.0000)
   1 Cu     1.585526    1.850500   11.255893    ( 0.0000,  0.0000,  0.0000)
   2 Cu     4.202528    1.850500   11.255893    ( 0.0000,  0.0000,  0.0000)
   3 Cu     0.277075    0.000000   10.052672    ( 0.0000,  0.0000,  0.0000)
   4 Cu     0.277046    0.000000   12.617554    ( 0.0000,  0.0000,  0.0000)
   5 Cu     4.202500    1.850500   13.915219    ( 0.0000,  0.0000,  0.0000)
   6 Cu     1.585498    1.850500   13.915219    ( 0.0000,  0.0000,  0.0000)
   7 Cu     2.894049    0.000000   12.617554    ( 0.0000,  0.0000,  0.0000)
   8 Cu     2.894023    0.000000   15.235840    ( 0.0000,  0.0000,  0.0000)
   9 Cu     1.585481    1.850500   16.539378    ( 0.0000,  0.0000,  0.0000)
  10 Cu     4.202483    1.850500   16.539378    ( 0.0000,  0.0000,  0.0000)
  11 Cu     0.277021    0.000000   15.235840    ( 0.0000,  0.0000,  0.0000)
  12 Cu     0.277012    0.000000   17.854193    ( 0.0000,  0.0000,  0.0000)
  13 Cu     4.202492    1.850500   19.157800    ( 0.0000,  0.0000,  0.0000)
  14 Cu     1.585490    1.850500   19.157800    ( 0.0000,  0.0000,  0.0000)
  15 Cu     2.894014    0.000000   17.854193    ( 0.0000,  0.0000,  0.0000)
  16 Cu     2.894032    0.000000   20.478448    ( 0.0000,  0.0000,  0.0000)
  17 Cu     1.585513    1.850500   21.776066    ( 0.0000,  0.0000,  0.0000)
  18 Cu     4.202515    1.850500   21.776066    ( 0.0000,  0.0000,  0.0000)
  19 Cu     0.277029    0.000000   20.478448    ( 0.0000,  0.0000,  0.0000)
  20 Cu     0.277055    0.000000   23.137791    ( 0.0000,  0.0000,  0.0000)
  21 Cu     4.202529    1.850500   24.340566    ( 0.0000,  0.0000,  0.0000)
  22 Cu     1.585526    1.850500   24.340566    ( 0.0000,  0.0000,  0.0000)
  23 Cu     2.894058    0.000000   23.137791    ( 0.0000,  0.0000,  0.0000)
  24 Cu     2.894078    3.701000   10.052672    ( 0.0000,  0.0000,  0.0000)
  25 Cu     1.585526    5.551500   11.255893    ( 0.0000,  0.0000,  0.0000)
  26 Cu     4.202528    5.551500   11.255893    ( 0.0000,  0.0000,  0.0000)
  27 Cu     0.277075    3.701000   10.052672    ( 0.0000,  0.0000,  0.0000)
  28 Cu     0.277046    3.701000   12.617555    ( 0.0000,  0.0000,  0.0000)
  29 Cu     4.202500    5.551500   13.915219    ( 0.0000,  0.0000,  0.0000)
  30 Cu     1.585498    5.551500   13.915219    ( 0.0000,  0.0000,  0.0000)
  31 Cu     2.894049    3.701000   12.617555    ( 0.0000,  0.0000,  0.0000)
  32 Cu     2.894023    3.701000   15.235840    ( 0.0000,  0.0000,  0.0000)
  33 Cu     1.585481    5.551500   16.539378    ( 0.0000,  0.0000,  0.0000)
  34 Cu     4.202483    5.551500   16.539378    ( 0.0000,  0.0000,  0.0000)
  35 Cu     0.277021    3.701000   15.235840    ( 0.0000,  0.0000,  0.0000)
  36 Cu     0.277012    3.701000   17.854193    ( 0.0000,  0.0000,  0.0000)
  37 Cu     4.202492    5.551500   19.157800    ( 0.0000,  0.0000,  0.0000)
  38 Cu     1.585490    5.551500   19.157800    ( 0.0000,  0.0000,  0.0000)
  39 Cu     2.894014    3.701000   17.854193    ( 0.0000,  0.0000,  0.0000)
  40 Cu     2.894032    3.701000   20.478448    ( 0.0000,  0.0000,  0.0000)
  41 Cu     1.585513    5.551500   21.776066    ( 0.0000,  0.0000,  0.0000)
  42 Cu     4.202515    5.551500   21.776066    ( 0.0000,  0.0000,  0.0000)
  43 Cu     0.277029    3.701000   20.478448    ( 0.0000,  0.0000,  0.0000)
  44 Cu     0.277055    3.701000   23.137791    ( 0.0000,  0.0000,  0.0000)
  45 Cu     4.202529    5.551500   24.340566    ( 0.0000,  0.0000,  0.0000)
  46 Cu     1.585526    5.551500   24.340566    ( 0.0000,  0.0000,  0.0000)
  47 Cu     2.894058    3.701000   23.137791    ( 0.0000,  0.0000,  0.0000)
  48 Cu     8.128082    0.000000   10.052672    ( 0.0000,  0.0000,  0.0000)
  49 Cu     6.819531    1.850500   11.255893    ( 0.0000,  0.0000,  0.0000)
  50 Cu     9.436533    1.850500   11.255893    ( 0.0000,  0.0000,  0.0000)
  51 Cu     5.511080    0.000000   10.052672    ( 0.0000,  0.0000,  0.0000)
  52 Cu     5.511051    0.000000   12.617555    ( 0.0000,  0.0000,  0.0000)
  53 Cu     9.436505    1.850500   13.915219    ( 0.0000,  0.0000,  0.0000)
  54 Cu     6.819502    1.850500   13.915219    ( 0.0000,  0.0000,  0.0000)
  55 Cu     8.128053    0.000000   12.617555    ( 0.0000,  0.0000,  0.0000)
  56 Cu     8.128028    0.000000   15.235840    ( 0.0000,  0.0000,  0.0000)
  57 Cu     6.819486    1.850500   16.539378    ( 0.0000,  0.0000,  0.0000)
  58 Cu     9.436488    1.850500   16.539378    ( 0.0000,  0.0000,  0.0000)
  59 Cu     5.511026    0.000000   15.235840    ( 0.0000,  0.0000,  0.0000)
[...]
  81 Cu     6.819486    5.551500   16.539378    ( 0.0000,  0.0000,  0.0000)
  82 Cu     9.436488    5.551500   16.539378    ( 0.0000,  0.0000,  0.0000)
  83 Cu     5.511026    3.701000   15.235840    ( 0.0000,  0.0000,  0.0000)
  84 Cu     5.511016    3.701000   17.854193    ( 0.0000,  0.0000,  0.0000)
  85 Cu     9.436497    5.551500   19.157800    ( 0.0000,  0.0000,  0.0000)
  86 Cu     6.819495    5.551500   19.157800    ( 0.0000,  0.0000,  0.0000)
  87 Cu     8.128019    3.701000   17.854193    ( 0.0000,  0.0000,  0.0000)
  88 Cu     8.128036    3.701000   20.478448    ( 0.0000,  0.0000,  0.0000)
  89 Cu     6.819518    5.551500   21.776066    ( 0.0000,  0.0000,  0.0000)
  90 Cu     9.436520    5.551500   21.776066    ( 0.0000,  0.0000,  0.0000)
  91 Cu     5.511034    3.701000   20.478448    ( 0.0000,  0.0000,  0.0000)
  92 Cu     5.511060    3.701000   23.137791    ( 0.0000,  0.0000,  0.0000)
  93 Cu     9.436533    5.551500   24.340566    ( 0.0000,  0.0000,  0.0000)
  94 Cu     6.819531    5.551500   24.340565    ( 0.0000,  0.0000,  0.0000)
  95 Cu     8.128062    3.701000   23.137791    ( 0.0000,  0.0000,  0.0000)

Unit cell:
           periodic     x           y           z      points  spacing
  1. axis:    yes   10.468009    0.000000    0.000000    60     0.1745
  2. axis:    yes    0.000000    7.402000    0.000000    42     0.1762
  3. axis:    yes    0.000000    0.000000   34.393512   196     0.1755

  Lengths:  10.468009   7.402000  34.393512
  Angles:   90.000000  90.000000  90.000000

Effective grid spacing dv^(1/3) = 0.1754

                     log10-error:    total        iterations:
           time      wfs    density  energy       fermi  poisson
iter:   1  15:13:57  -2.62   +inf  -7269.123370    3
iter:   2  15:15:20  -2.85  -2.34  -7268.491575    36
iter:   3  15:16:43  -3.65  -2.61  -7268.289063    3
iter:   4  15:18:07  -4.07  -2.81  -7268.248743    2
iter:   5  15:19:30  -4.06  -2.90  -7268.169230    3
iter:   6  15:20:53  -4.98  -3.39  -7268.165813    2
iter:   7  15:22:17  -5.09  -3.59  -7268.164914    3
iter:   8  15:23:38  -5.47  -3.85  -7268.164383    2
iter:   9  15:25:02  -6.16  -4.03  -7268.164623    2
iter:  10  15:26:24  -7.16  -4.17  -7268.164436    2
iter:  11  15:27:48  -6.35  -4.22  -7268.164387    2
iter:  12  15:29:11  -6.16  -4.21  -7268.164361    2
iter:  13  15:30:34  -6.49  -4.40  -7268.164346    2
iter:  14  15:31:58  -7.04  -4.66  -7268.164229    2
iter:  15  15:33:20  -7.20  -4.73  -7268.164170    2
iter:  16  15:34:43  -7.16  -4.74  -7268.164200    2
iter:  17  15:36:06  -7.32  -4.91  -7268.164166    2
iter:  18  15:37:29  -8.57  -4.89  -7268.164167    2

Converged after 18 iterations.

Dipole moment: (-93.878278, 0.000000, 0.000108) |e|*Ang

Energy contributions relative to reference atoms: (reference = -4322059.376747)

Kinetic:       +652.921612
Potential:     -736.726625
External:        +0.000000
XC:            -7182.574660
Entropy (-ST):   -1.014999
Local:           -1.276994
Free energy:   -7268.671667
Extrapolated:  -7268.164167

Fermi level: 0.73955

Showing only first 2 kpts
 Kpt  Band  Eigenvalues  Occupancy
  0   526      0.48065    0.46507
  0   527      0.59231    0.40671
  0   528      0.63096    0.37381
  0   529      0.69348    0.30660

  1   526      0.82130    0.15314
  1   527      0.93769    0.06059
  1   528      0.94192    0.05837
  1   529      1.07978    0.01611

No gap

Forces in eV/Ang:
  0 Cu    0.00021    0.00000    0.01097
  1 Cu    0.00021    0.00000    0.00980
  2 Cu    0.00021   -0.00000    0.00980
  3 Cu    0.00021    0.00000    0.01097
  4 Cu    0.00025    0.00000   -0.00144
  5 Cu    0.00017    0.00000   -0.02464
  6 Cu    0.00017    0.00000   -0.02464
  7 Cu    0.00025    0.00000   -0.00144
  8 Cu    0.00016    0.00000   -0.01350
  9 Cu    0.00015    0.00000   -0.00274
 10 Cu    0.00015    0.00000   -0.00274
 11 Cu    0.00016    0.00000   -0.01350
 12 Cu    0.00014    0.00000    0.00304
 13 Cu    0.00017   -0.00000    0.01326
 14 Cu    0.00017    0.00000    0.01326
 15 Cu    0.00014    0.00000    0.00304
 16 Cu    0.00015    0.00000    0.02416
 17 Cu    0.00025    0.00000    0.00054
 18 Cu    0.00025   -0.00000    0.00054
 19 Cu    0.00015    0.00000    0.02416
 20 Cu    0.00017    0.00000   -0.01091
 21 Cu    0.00013    0.00000   -0.00987
 22 Cu    0.00013   -0.00000   -0.00987
 23 Cu    0.00017    0.00000   -0.01091
 24 Cu    0.00021    0.00000    0.01097
 25 Cu    0.00021   -0.00000    0.00980
 26 Cu    0.00021    0.00000    0.00980
 27 Cu    0.00021    0.00000    0.01097
 28 Cu    0.00025    0.00000   -0.00144
 29 Cu    0.00017   -0.00000   -0.02464
 30 Cu    0.00017   -0.00000   -0.02464
 31 Cu    0.00025    0.00000   -0.00144
 32 Cu    0.00016    0.00000   -0.01350
 33 Cu    0.00015   -0.00000   -0.00274
 34 Cu    0.00015   -0.00000   -0.00274
 35 Cu    0.00016    0.00000   -0.01350
 36 Cu    0.00014    0.00000    0.00304
 37 Cu    0.00017    0.00000    0.01326
 38 Cu    0.00017   -0.00000    0.01326
 39 Cu    0.00014    0.00000    0.00304
 40 Cu    0.00015    0.00000    0.02416
 41 Cu    0.00025   -0.00000    0.00054
 42 Cu    0.00025    0.00000    0.00054
 43 Cu    0.00015    0.00000    0.02416
 44 Cu    0.00017    0.00000   -0.01091
 45 Cu    0.00013   -0.00000   -0.00987
 46 Cu    0.00013    0.00000   -0.00987
 47 Cu    0.00017    0.00000   -0.01091
 48 Cu    0.00021    0.00000    0.01097
 49 Cu    0.00021    0.00000    0.00980
 50 Cu    0.00021   -0.00000    0.00980
 51 Cu    0.00021    0.00000    0.01097
 52 Cu    0.00025    0.00000   -0.00144
 53 Cu    0.00017    0.00000   -0.02464
 54 Cu    0.00017    0.00000   -0.02464
 55 Cu    0.00025    0.00000   -0.00144
 56 Cu    0.00016    0.00000   -0.01350
 57 Cu    0.00015    0.00000   -0.00274
 58 Cu    0.00015    0.00000   -0.00274
 59 Cu    0.00016    0.00000   -0.01350
[...]
 81 Cu    0.00015   -0.00000   -0.00274
 82 Cu    0.00015   -0.00000   -0.00274
 83 Cu    0.00016    0.00000   -0.01350
 84 Cu    0.00014    0.00000    0.00304
 85 Cu    0.00017   -0.00000    0.01326
 86 Cu    0.00017   -0.00000    0.01326
 87 Cu    0.00014    0.00000    0.00304
 88 Cu    0.00015    0.00000    0.02416
 89 Cu    0.00025   -0.00000    0.00054
 90 Cu    0.00025   -0.00000    0.00054
 91 Cu    0.00015    0.00000    0.02416
 92 Cu    0.00017    0.00000   -0.01091
 93 Cu    0.00013    0.00000   -0.00987
 94 Cu    0.00013   -0.00000   -0.00987
 95 Cu    0.00017    0.00000   -0.01091