User:   thorkong@node028.cluster
Date:   Sun Oct  9 03:38:32 2022
Arch:   x86_64
Pid:    25337
Python: 3.10.5
gpaw:   /groups/kemi/thorkong/miniconda3/envs/gpaw22/lib/python3.10/site-packages/gpaw
_gpaw:  /groups/kemi/thorkong/miniconda3/envs/gpaw22/lib/python3.10/site-packages/
        _gpaw.cpython-310-x86_64-linux-gnu.so
ase:    /groups/kemi/thorkong/miniconda3/envs/gpaw22/lib/python3.10/site-packages/ase (version 3.22.1)
numpy:  /groups/kemi/thorkong/miniconda3/envs/gpaw22/lib/python3.10/site-packages/numpy (version 1.23.0)
scipy:  /groups/kemi/thorkong/miniconda3/envs/gpaw22/lib/python3.10/site-packages/scipy (version 1.8.1)
units:  Angstrom and eV
cores: 32
OpenMP: True
OMP_NUM_THREADS: 1

Input parameters:
  basis: dzp
  kpts: [4 4 1]
  mode: {ecut: 600.0,
         name: pw}
  xc: BEEF-vdW

System changes: positions, numbers, cell, pbc, initial_charges, initial_magmoms

Initialize ...

Cu-setup:
  name: Copper
  id: f1c4d45d90492f1bbfdcb091e8418fdf
  Z: 29.0
  valence: 11
  core: 18
  charge: 0.0
  file: /groups/kemi/thorkong/miniconda3/envs/gpaw22/share/gpaw/Cu.PBE.gz
  compensation charges: gauss, rc=0.33, lmax=2
  cutoffs: 2.06(filt), 2.43(core),
  valence states:
                energy  radius
    4s(1.00)    -4.609   1.164
    4p(0.00)    -0.698   1.164
    3d(10.00)    -5.039   1.058
    *s          22.603   1.164
    *p          26.513   1.164
    *d          22.172   1.058

  LCAO basis set for Cu:
    Name: dzp
    File: /groups/kemi/thorkong/miniconda3/envs/gpaw22/share/gpaw/Cu.dzp.basis.gz
    Number of radial functions: 5
    Number of spherical harmonics: 15
      l=0, rc=8.9688 Bohr: 4s-sz confined orbital
      l=2, rc=5.1719 Bohr: 3d-sz confined orbital
      l=0, rc=5.3281 Bohr: 4s-dz split-valence wave
      l=2, rc=3.1406 Bohr: 3d-dz split-valence wave
      l=1, rc=8.9688 Bohr: p-type Gaussian polarization

Cl-setup:
  name: Chlorine
  id: 726897f06f34e53cf8e33b5885a02604
  Z: 17.0
  valence: 7
  core: 10
  charge: 0.0
  file: /groups/kemi/thorkong/miniconda3/envs/gpaw22/share/gpaw/Cl.PBE.gz
  compensation charges: gauss, rc=0.25, lmax=2
  cutoffs: 1.40(filt), 1.49(core),
  valence states:
                energy  radius
    3s(2.00)   -20.689   0.794
    3p(5.00)    -8.594   0.794
    *s           6.523   0.794
    *p          18.617   0.794
    *d           0.000   0.794

  LCAO basis set for Cl:
    Name: dzp
    File: /groups/kemi/thorkong/miniconda3/envs/gpaw22/share/gpaw/Cl.dzp.basis.gz
    Number of radial functions: 5
    Number of spherical harmonics: 13
      l=0, rc=5.1719 Bohr: 3s-sz confined orbital
      l=1, rc=6.2656 Bohr: 3p-sz confined orbital
      l=0, rc=2.8281 Bohr: 3s-dz split-valence wave
      l=1, rc=3.5156 Bohr: 3p-dz split-valence wave
      l=2, rc=6.2656 Bohr: d-type Gaussian polarization

Reference energy: -2506488.095795

Spin-paired calculation

Convergence criteria:
 Maximum [total energy] change in last 3 cyles: 0.0005 eV / electron
 Maximum integral of absolute [dens]ity change: 0.0001 electrons / valence electron
 Maximum integral of absolute [eigenst]ate change: 4e-08 eV^2 / valence electron
 Maximum number of scf [iter]ations: 333
 (Square brackets indicate name in SCF output, whereas a 'c' in
 the SCF output indicates the quantity has converged.)

Symmetries present (total): 1

  ( 1  0  0)
  ( 0  1  0)
  ( 0  0  1)

16 k-points: 4 x 4 x 1 Monkhorst-Pack grid
8 k-points in the irreducible part of the Brillouin zone
       k-points in crystal coordinates                weights
   0:     0.12500000   -0.37500000    0.00000000          2/16
   1:     0.12500000   -0.12500000    0.00000000          2/16
   2:     0.12500000    0.12500000    0.00000000          2/16
   3:     0.12500000    0.37500000    0.00000000          2/16
   4:     0.37500000   -0.37500000    0.00000000          2/16
   5:     0.37500000   -0.12500000    0.00000000          2/16
   6:     0.37500000    0.12500000    0.00000000          2/16
   7:     0.37500000    0.37500000    0.00000000          2/16

Wave functions: Plane wave expansion
  Cutoff energy: 600.000 eV
  Number of coefficients (min, max): 63070, 63184
  Pulay-stress correction: 0.000000 eV/Ang^3 (de/decut=0.000000)
  Using FFTW library
  ScaLapack parameters: grid=2x2, blocksize=64
  Wavefunction extrapolation:
    Improved wavefunction reuse through dual PAW basis

Occupation numbers: Fermi-Dirac: width=0.1000 eV

Eigensolver
   Davidson(niter=2)

Densities:
  Coarse grid: 45*48*175 grid
  Fine grid: 90*96*350 grid
  Total Charge: 0.000000

Density mixing:
  Method: separate
  Backend: pulay
  Linear mixing parameter: 0.05
  Mixing with 5 old densities
  Damping of long wave oscillations: 50

Hamiltonian:
  XC and Coulomb potentials evaluated on a 90*96*350 grid
  Using the BEEF-vdW Exchange-Correlation functional
  External potential:
    NoExternalPotential

XC parameters: BEEF-vdW with 2 nearest neighbor stencil

Total number of cores used: 32
Parallelization over k-points: 8
Domain decomposition: 1 x 1 x 4
                      2 x 2 x 8 (xc only)

Number of atoms: 60
Number of atomic orbitals: 888
Number of bands in calculation: 386
Number of valence electrons: 636
Bands to converge: occupied

... initialized

Initializing position-dependent things.

Density initialized from atomic densities
Creating initial wave functions:
  386 bands from LCAO basis set

               Cl

                   Cl
           Cl    Cu     Cu

         Cu    Cu    CCu    Cu

       Cu    CCu    Cu    Cu
           Cu    CCu    Cu
               Cu    Cu
         Cu    Cu     Cu    Cu
       Cu    Cu     Cu    Cu
              Cu    Cu
           Cu    CCu    Cu
         Cu    Cu    CCu    Cu

       Cu    CCu    Cu    Cu

           Cu     Cu    Cu
                Cl

[...]

Positions:
   0 Cu     1.863519    1.840011    9.991728    ( 0.0000,  0.0000,  0.0000)
   1 Cu     0.579324    0.534354   11.850156    ( 0.0000,  0.0000,  0.0000)
   2 Cu     3.184374    0.525687   11.860351    ( 0.0000,  0.0000,  0.0000)
   3 Cu     1.882461    1.837170   13.709346    ( 0.0000,  0.0000,  0.0000)
   4 Cu     0.572422    0.532109   15.568002    ( 0.0000,  0.0000,  0.0000)
   5 Cu     3.202176    0.523608   15.542225    ( 0.0000,  0.0000,  0.0000)
   6 Cu     1.888250    1.836302   17.389485    ( 0.0000,  0.0000,  0.0000)
   7 Cu     0.595774    0.567943   19.236024    ( 0.0000,  0.0000,  0.0000)
   8 Cu     3.216874    0.489539   19.243299    ( 0.0000,  0.0000,  0.0000)
   9 Cu     0.566878    3.135556   11.850108    ( 0.0000,  0.0000,  0.0000)
  10 Cu     0.564229    3.138692   15.548586    ( 0.0000,  0.0000,  0.0000)
  11 Cu     0.548088    3.178122   19.244307    ( 0.0000,  0.0000,  0.0000)
  12 Cu     7.126713    1.824361    9.995451    ( 0.0000,  0.0000,  0.0000)
  13 Cu     5.801978    0.510486   11.848349    ( 0.0000,  0.0000,  0.0000)
  14 Cu     7.114105    1.825225   13.700462    ( 0.0000,  0.0000,  0.0000)
  15 Cu     5.802320    0.523060   15.545277    ( 0.0000,  0.0000,  0.0000)
  16 Cu     7.099116    1.848191   17.405290    ( 0.0000,  0.0000,  0.0000)
  17 Cu     5.811926    0.525159   19.265189    ( 0.0000,  0.0000,  0.0000)
  18 Cu     4.498396    1.836597   10.047498    ( 0.0000,  0.0000,  0.0000)
  19 Cu     4.507409    4.479749   10.015709    ( 0.0000,  0.0000,  0.0000)
  20 Cu     3.191691    3.149782   11.854672    ( 0.0000,  0.0000,  0.0000)
  21 Cu     5.815905    3.145432   11.860848    ( 0.0000,  0.0000,  0.0000)
  22 Cu     4.503656    1.836258   13.687359    ( 0.0000,  0.0000,  0.0000)
  23 Cu     4.489146    4.457980   13.689522    ( 0.0000,  0.0000,  0.0000)
  24 Cu     3.202143    3.135981   15.561257    ( 0.0000,  0.0000,  0.0000)
  25 Cu     5.807559    3.148158   15.542083    ( 0.0000,  0.0000,  0.0000)
  26 Cu     4.513829    1.820188   17.409258    ( 0.0000,  0.0000,  0.0000)
  27 Cu     4.499597    4.444191   17.396159    ( 0.0000,  0.0000,  0.0000)
  28 Cu     3.183988    3.113988   19.235276    ( 0.0000,  0.0000,  0.0000)
  29 Cu     5.803919    3.150161   19.264545    ( 0.0000,  0.0000,  0.0000)
  30 Cu     1.887418    4.443937    9.986607    ( 0.0000,  0.0000,  0.0000)
  31 Cu     1.879479    7.068771    9.986018    ( 0.0000,  0.0000,  0.0000)
  32 Cu     0.592168    5.745799   11.845433    ( 0.0000,  0.0000,  0.0000)
  33 Cu     3.177649    5.773761   11.841299    ( 0.0000,  0.0000,  0.0000)
  34 Cu     1.883764    4.445890   13.708528    ( 0.0000,  0.0000,  0.0000)
  35 Cu     1.889066    7.070870   13.705351    ( 0.0000,  0.0000,  0.0000)
  36 Cu     0.577218    5.768832   15.550185    ( 0.0000,  0.0000,  0.0000)
  37 Cu     3.187643    5.757741   15.563404    ( 0.0000,  0.0000,  0.0000)
  38 Cu     1.875466    4.448614   17.389843    ( 0.0000,  0.0000,  0.0000)
  39 Cu     1.889383    7.083460   17.402560    ( 0.0000,  0.0000,  0.0000)
  40 Cu     0.564604    5.769607   19.255623    ( 0.0000,  0.0000,  0.0000)
  41 Cu     3.192999    5.757320   19.203525    ( 0.0000,  0.0000,  0.0000)
  42 Cu     7.143348    4.415671   10.006467    ( 0.0000,  0.0000,  0.0000)
  43 Cu     7.095603    7.025914   10.015029    ( 0.0000,  0.0000,  0.0000)
  44 Cu     5.803080    5.757661   11.861296    ( 0.0000,  0.0000,  0.0000)
  45 Cu     7.127154    4.455304   13.702006    ( 0.0000,  0.0000,  0.0000)
  46 Cu     7.118835    7.061923   13.682824    ( 0.0000,  0.0000,  0.0000)
  47 Cu     5.808823    5.756800   15.541256    ( 0.0000,  0.0000,  0.0000)
  48 Cu     7.124524    4.458416   17.400558    ( 0.0000,  0.0000,  0.0000)
  49 Cu     7.111988    7.059589   17.400477    ( 0.0000,  0.0000,  0.0000)
  50 Cu     5.827919    5.753907   19.259406    ( 0.0000,  0.0000,  0.0000)
  51 Cu     4.474562    7.104322   10.007388    ( 0.0000,  0.0000,  0.0000)
  52 Cu     4.489084    7.070434   13.708397    ( 0.0000,  0.0000,  0.0000)
  53 Cu     4.506942    7.068226   17.390250    ( 0.0000,  0.0000,  0.0000)
  54 Cl     4.384416    4.491397   21.436146    ( 0.0000,  0.0000,  0.0000)
  55 Cl     3.306910    3.102441    7.814867    ( 0.0000,  0.0000,  0.0000)
  56 Cl     1.901793    1.855965   21.415332    ( 0.0000,  0.0000,  0.0000)
  57 Cl     5.789761    5.737712    7.835638    ( 0.0000,  0.0000,  0.0000)
  58 Cl     2.025490    7.064701   21.423196    ( 0.0000,  0.0000,  0.0000)
  59 Cl     5.665969    0.528994    7.827893    ( 0.0000,  0.0000,  0.0000)

Unit cell:
           periodic     x           y           z      points  spacing
  1. axis:    yes    7.851007    0.000000    0.000000    45     0.1655
  2. axis:    yes    2.617002    7.851007    0.000000    48     0.1636
  3. axis:    yes    0.000000    0.000000   30.683867   175     0.1753

  Lengths:   7.851007   8.275688  30.683867
  Angles:   90.000000  90.000000  71.565053

Effective grid spacing dv^(1/3) = 0.1710

     iter     time        total  log10-change:
                         energy  eigst   dens
iter:   1 03:45:06 -4418.373594
iter:   2 03:46:15 -4352.195504  -0.18  -0.94
iter:   3 03:47:08 -4321.243240  -1.06  -1.21
iter:   4 03:48:18 -4313.471524  -1.89  -1.34
iter:   5 03:49:23 -4308.490931  -1.44  -1.43
iter:   6 03:50:19 -4312.660496  -1.47  -1.60
iter:   7 03:51:13 -4310.868313  -1.78  -1.74
[...]
Local:           -0.867059
Free energy:   -4307.360001
Extrapolated:  -4307.060581

Showing only first 2 kpts
 Kpt  Band  Eigenvalues  Occupancy
  0   316     -1.49025    1.92505
  0   317     -1.37443    1.77940
  0   318     -1.17164    1.02989
  0   319     -1.12338    0.79169

  1   316     -1.43496    1.87322
  1   317     -1.39636    1.81891
  1   318     -1.34287    1.70943
  1   319     -1.25585    1.42268

Fermi level: -1.16566

No gap

Forces in eV/Ang:
  0 Cu    0.14758    0.10024   -0.26952
  1 Cu    0.01296   -0.03566   -0.23220
  2 Cu    0.00847    0.00179   -0.15167
  3 Cu   -0.00381    0.00825    0.01170
  4 Cu    0.00822    0.00332   -0.05684
  5 Cu   -0.01747   -0.00898   -0.09698
  6 Cu    0.01049   -0.01659    0.07807
  7 Cu   -0.04412   -0.11918    0.71693
  8 Cu   -0.11344    0.16039    0.27811
  9 Cu    0.00038    0.01175   -0.21044
 10 Cu    0.03261    0.03407   -0.04343
 11 Cu    0.15269   -0.13677    0.27231
 12 Cu   -0.12122   -0.08558   -0.25327
 13 Cu   -0.04707    0.01465   -0.04632
 14 Cu    0.01784   -0.00323    0.04941
 15 Cu    0.00732   -0.00147   -0.01834
 16 Cu    0.01225    0.00415    0.16639
 17 Cu    0.11001   -0.05648    0.26031
 18 Cu   -0.02168   -0.02572   -0.82044
 19 Cu    0.01546   -0.05800   -0.72553
 20 Cu    0.04706    0.01377   -0.07500
 21 Cu   -0.02365   -0.02263   -0.15742
 22 Cu   -0.01905   -0.00593    0.10225
 23 Cu    0.02624    0.01623    0.06458
 24 Cu   -0.02623   -0.01574   -0.06600
 25 Cu   -0.00442   -0.00233   -0.06888
 26 Cu   -0.01551    0.00651    0.17671
 27 Cu   -0.04679   -0.01366    0.07470
 28 Cu   -0.01575    0.05827    0.72284
 29 Cu   -0.09992    0.04886    0.25664
 30 Cu    0.10024   -0.04925   -0.25842
 31 Cu   -0.11072    0.05728   -0.26230
 32 Cu   -0.01213   -0.00405   -0.16503
 33 Cu    0.01524   -0.00633   -0.17494
 34 Cu    0.00451    0.00233    0.06767
 35 Cu   -0.00742    0.00201    0.01695
 36 Cu   -0.01773    0.00301   -0.05080
 37 Cu    0.01889    0.00615   -0.10343
 38 Cu    0.02344    0.02253    0.15826
 39 Cu    0.04675   -0.01419    0.04622
 40 Cu    0.12070    0.08528    0.25050
 41 Cu    0.02143    0.02570    0.82051
 42 Cu   -0.15328    0.13746   -0.27536
 43 Cu    0.04415    0.11942   -0.71973
 44 Cu   -0.01053    0.01681   -0.07841
 45 Cu   -0.03285   -0.03381    0.04215
 46 Cu   -0.00812   -0.00329    0.05545
 47 Cu    0.00376   -0.00800   -0.01290
 48 Cu   -0.00076   -0.01137    0.21184
 49 Cu   -0.01283    0.03576    0.23346
 50 Cu   -0.14727   -0.09964    0.26684
 51 Cu    0.11403   -0.16087   -0.28096
 52 Cu    0.01737    0.00895    0.09584
 53 Cu   -0.00849   -0.00160    0.15275
 54 Cl    0.44322   -0.05286   -1.56215
 55 Cl   -0.44166    0.05234    1.56094
 56 Cl   -0.03260    0.00265   -1.53947
 57 Cl    0.03250   -0.00276    1.53831
 58 Cl   -0.44474    0.06904   -1.55621
 59 Cl    0.44329   -0.06836    1.55496

System changes: positions

[...]

Density initialized from wave functions

[...]

          CCl    Cu    Cu
         Cu   CCu   CCu    Cu

       Cu    CCu   CCu   Cu
          CCu   CuCu   CCu

         Cu   CCu   CCu    Cu
       Cu    CCu   CCu   Cu

          CCu   CuCu   CCu
         Cu   CCu   CCu    Cu

       Cu    CCu   CCu   Cu
           Cu    Cu    CCu

[...]

     iter     time        total  log10-change:
                         energy  eigst   dens
iter:   1 04:13:34 -4343.110972  -1.11
iter:   2 04:14:35 -4312.846380  -1.04  -1.31
iter:   3 04:16:04 -4309.172706  -2.46  -1.99
iter:   4 04:17:11 -4308.963350  -3.23  -2.29
iter:   5 04:18:12 -4309.121563c -3.10  -2.37
iter:   6 04:19:14 -4308.747576  -2.83  -2.39
iter:   7 04:20:25 -4308.740985  -4.04  -2.94
iter:   8 04:21:20 -4308.737510c -3.92  -2.97
iter:   9 04:22:24 -4308.737918c -4.17  -3.10
iter:  10 04:23:14 -4308.733935c -4.57  -3.31
iter:  11 04:24:20 -4308.734520c -4.43  -3.32
iter:  12 04:25:23 -4308.733361c -5.01  -3.57
iter:  13 04:26:35 -4308.732089c -5.50  -3.59
iter:  14 04:27:33 -4308.732108c -5.94  -3.77
iter:  15 04:28:31 -4308.732076c -5.81  -3.84
iter:  16 04:29:24 -4308.732067c -6.82  -4.15c
iter:  17 04:30:15 -4308.731994c -6.33  -4.21c
iter:  18 04:31:12 -4308.731996c -6.70  -4.43c
iter:  19 04:32:05 -4308.731995c -6.94  -4.40c
iter:  20 04:32:58 -4308.732007c -7.35  -4.49c
iter:  21 04:33:46 -4308.732001c -7.42c -4.63c

[...]

              Cl
                   Cl
                 Cu
          CCl          Cu
         Cu   CCu   CCu    Cu
       Cu
             CCu   CCu   Cu
          CCu    CCu   CCu

[...]

          CCu   CCu    CCu
         Cu   CCu   CCu
                           Cu
       Cu    CCu   CCu   Cu
           Cu          CCu
                 Cu
               Cl
                    Cl

[...]

     iter     time        total  log10-change:
                         energy  eigst   dens
iter:   1 04:35:20 -4350.942184  -0.93
iter:   2 04:36:14 -4312.819985  -1.01  -1.31
iter:   3 04:37:36 -4310.181160  -2.40  -2.03
iter:   4 04:39:08 -4309.808760  -2.71  -2.20
iter:   5 04:40:09 -4309.755021  -2.77  -2.30
iter:   6 04:40:59 -4309.512366c -2.69  -2.37
iter:   7 04:41:53 -4309.424304  -3.47  -2.61
iter:   8 04:42:46 -4309.414836c -3.22  -2.80
iter:   9 04:43:46 -4309.405916c -4.29  -3.02
iter:  10 04:44:46 -4309.400121c -3.70  -3.10
iter:  11 04:45:38 -4309.400049c -4.90  -3.23
iter:  12 04:46:41 -4309.394828c -4.87  -3.30
iter:  13 04:47:40 -4309.392135c -4.71  -3.36
iter:  14 04:48:44 -4309.392555c -4.86  -3.47
iter:  15 04:49:44 -4309.391776c -5.88  -3.59
iter:  16 04:50:57 -4309.391661c -4.84  -3.65
iter:  17 04:51:58 -4309.391363c -6.33  -3.91
iter:  18 04:52:49 -4309.391198c -6.02  -4.01c
iter:  19 04:53:51 -4309.391195c -6.61  -4.06c
iter:  20 04:55:11 -4309.391179c -6.10  -4.10c
iter:  21 04:56:19 -4309.391163c -7.11  -4.50c
iter:  22 04:57:15 -4309.391135c -6.75  -4.55c
iter:  23 04:58:08 -4309.391137c -8.14c -4.77c

[...]

          CCl    Cu    Cu
         Cu   CCu   CCu    Cu
       Cu
             CCu   CCu   Cu
          CCu    CCu   CCu

[...]

          CCu   CCu    CCu
         Cu   CCu   CCu
                           Cu
       Cu    CCu   CCu   Cu
           Cu    Cu    CCu

[...]

                    Cl
           Cl    Cu     Cu
               Cu    Cu     Cu
         Cu    Cu     Cu
       Cu    CCu   CCu    Cu

           Cu    CCu    Cu
         Cu    Cu    CCu    Cu

       Cu    CCu    Cu    Cu
           Cu    CCu    Cu

         Cu    CCu   CCu    Cu
             Cu     Cu    Cu
       Cu     Cu    Cu
           Cu     Cu    Cu
               Cl

[...]

                    Cl
           Cl    Cu     Cu
               Cu    Cu     Cu
         Cu    Cu     Cu
       Cu    CCu   CCu    Cu
                        Cu
           Cu    CCu    Cu
         Cu    Cu    CCu    Cu

[...]

                    Cl
           Cl    Cu     Cu
               Cu    Cu     Cu
         Cu    Cu     Cu
       Cu    CCu    Cu    Cu

[...]

                    Cl
           Cl    Cu     Cu
               Cu    Cu     Cu
         Cu    Cu     Cu
       Cu    CCu   CCu    Cu

           Cu    CCu    Cu
         Cu    Cu    CCu    Cu

       Cu    CCu    Cu    Cu
           Cu    CCu    Cu

         Cu    CCu   CCu    Cu
             Cu     Cu    Cu
       Cu     Cu    Cu
           Cu     Cu    Cu
               Cl

[...]

          CCl    Cu    Cu
         Cu   CCu   CuCu   Cu

       Cu    CCu   CCu   Cu
          CCu    CCu   CCu

[...]

          CCu   CCu    CCu
         Cu   CCu   CCu    Cu

       Cu   CuCu   CCu   Cu
           Cu    Cu    CCu

[...]

System changes: positions

Initializing position-dependent things.

Density initialized from wave functions

[...]

          CCl    Cu    Cu
         Cu   CCu   CuCu   Cu

       Cu    CCu   CCu   Cu
          CCu   CuCu   CCu

         Cu   CCu   CCu    Cu
       Cu    CCu   CCu   Cu

          CCu   CuCu   CCu
         Cu   CCu   CCu    Cu

       Cu   CuCu   CCu   Cu
           Cu    Cu    CCu

              Cl
                     Cl

Positions:
   0 Cu     1.861610    1.804354    9.989151    ( 0.0000,  0.0000,  0.0000)
   1 Cu     0.591052    0.527231   11.801346    ( 0.0000,  0.0000,  0.0000)
   2 Cu     3.199080    0.525005   11.829814    ( 0.0000,  0.0000,  0.0000)
   3 Cu     1.878132    1.842262   13.680478    ( 0.0000,  0.0000,  0.0000)
   4 Cu     0.574640    0.541144   15.562897    ( 0.0000,  0.0000,  0.0000)
   5 Cu     3.198807    0.518607   15.536042    ( 0.0000,  0.0000,  0.0000)
   6 Cu     1.892239    1.835304   17.385174    ( 0.0000,  0.0000,  0.0000)
   7 Cu     0.559229    0.530292   19.263210    ( 0.0000,  0.0000,  0.0000)
   8 Cu     3.191682    0.508556   19.254919    ( 0.0000,  0.0000,  0.0000)
   9 Cu     0.550203    3.138687   11.801610    ( 0.0000,  0.0000,  0.0000)
  10 Cu     0.568380    3.148324   15.551315    ( 0.0000,  0.0000,  0.0000)
  11 Cu     0.574883    3.163179   19.253925    ( 0.0000,  0.0000,  0.0000)
  12 Cu     7.131312    1.862909    9.982917    ( 0.0000,  0.0000,  0.0000)
  13 Cu     5.786010    0.519029   11.852524    ( 0.0000,  0.0000,  0.0000)
  14 Cu     7.116879    1.825045   13.692448    ( 0.0000,  0.0000,  0.0000)
  15 Cu     5.802288    0.516054   15.565758    ( 0.0000,  0.0000,  0.0000)
  16 Cu     7.103102    1.845082   17.436856    ( 0.0000,  0.0000,  0.0000)
  17 Cu     5.769359    0.552487   19.274423    ( 0.0000,  0.0000,  0.0000)
  18 Cu     4.492003    1.829709    9.984769    ( 0.0000,  0.0000,  0.0000)
  19 Cu     4.483160    4.454593    9.983057    ( 0.0000,  0.0000,  0.0000)
  20 Cu     3.208794    3.149625   11.852658    ( 0.0000,  0.0000,  0.0000)
  21 Cu     5.799311    3.138499   11.826553    ( 0.0000,  0.0000,  0.0000)
  22 Cu     4.502981    1.834148   13.712932    ( 0.0000,  0.0000,  0.0000)
  23 Cu     4.496861    4.460326   13.693056    ( 0.0000,  0.0000,  0.0000)
  24 Cu     3.194327    3.134151   15.558236    ( 0.0000,  0.0000,  0.0000)
  25 Cu     5.814270    3.149254   15.553852    ( 0.0000,  0.0000,  0.0000)
  26 Cu     4.508935    1.825891   17.443025    ( 0.0000,  0.0000,  0.0000)
  27 Cu     4.482465    4.444805   17.398621    ( 0.0000,  0.0000,  0.0000)
  28 Cu     3.208199    3.139980   19.268458    ( 0.0000,  0.0000,  0.0000)
  29 Cu     5.843917    3.121993   19.272324    ( 0.0000,  0.0000,  0.0000)
  30 Cu     1.847513    4.472253    9.979608    ( 0.0000,  0.0000,  0.0000)
  31 Cu     1.921976    7.041900    9.977439    ( 0.0000,  0.0000,  0.0000)
  32 Cu     0.588125    5.749468   11.814787    ( 0.0000,  0.0000,  0.0000)
  33 Cu     3.182257    5.768440   11.808704    ( 0.0000,  0.0000,  0.0000)
  34 Cu     1.876955    4.445225   13.697433    ( 0.0000,  0.0000,  0.0000)
  35 Cu     1.888830    7.078396   13.685631    ( 0.0000,  0.0000,  0.0000)
  36 Cu     0.574222    5.769311   15.558856    ( 0.0000,  0.0000,  0.0000)
  37 Cu     3.188229    5.760316   15.538339    ( 0.0000,  0.0000,  0.0000)
  38 Cu     1.891792    4.455844   17.425065    ( 0.0000,  0.0000,  0.0000)
  39 Cu     1.905135    7.075381   17.398656    ( 0.0000,  0.0000,  0.0000)
  40 Cu     0.559750    5.731389   19.268989    ( 0.0000,  0.0000,  0.0000)
  41 Cu     3.199114    5.764792   19.266487    ( 0.0000,  0.0000,  0.0000)
  42 Cu     7.116399    4.431212    9.997798    ( 0.0000,  0.0000,  0.0000)
  43 Cu     7.131912    7.064069    9.987969    ( 0.0000,  0.0000,  0.0000)
  44 Cu     5.799053    5.759155   11.866131    ( 0.0000,  0.0000,  0.0000)
  45 Cu     7.122731    4.446148   13.699840    ( 0.0000,  0.0000,  0.0000)
  46 Cu     7.116557    7.053296   13.688407    ( 0.0000,  0.0000,  0.0000)
  47 Cu     5.813112    5.752246   15.570889    ( 0.0000,  0.0000,  0.0000)
  48 Cu     7.141032    4.455753   17.450141    ( 0.0000,  0.0000,  0.0000)
  49 Cu     7.100059    7.067242   17.450508    ( 0.0000,  0.0000,  0.0000)
  50 Cu     5.829576    5.790107   19.262742    ( 0.0000,  0.0000,  0.0000)
  51 Cu     4.499628    7.085882    9.997179    ( 0.0000,  0.0000,  0.0000)
  52 Cu     4.492382    7.075761   13.715194    ( 0.0000,  0.0000,  0.0000)
  53 Cu     4.492290    7.069509   17.421846    ( 0.0000,  0.0000,  0.0000)
  54 Cl     4.717476    4.495144   21.004095    ( 0.0000,  0.0000,  0.0000)
  55 Cl     2.973618    3.098772    8.247237    ( 0.0000,  0.0000,  0.0000)
  56 Cl     1.839853    1.856320   20.989468    ( 0.0000,  0.0000,  0.0000)
  57 Cl     5.851811    5.737416    8.261867    ( 0.0000,  0.0000,  0.0000)
  58 Cl     1.651974    7.037315   21.002577    ( 0.0000,  0.0000,  0.0000)
  59 Cl     6.039655    0.556746    8.248795    ( 0.0000,  0.0000,  0.0000)

Unit cell:
           periodic     x           y           z      points  spacing
  1. axis:    yes    7.851007    0.000000    0.000000    45     0.1655
  2. axis:    yes    2.617002    7.851007    0.000000    48     0.1636
  3. axis:    yes    0.000000    0.000000   30.683867   175     0.1753

  Lengths:   7.851007   8.275688  30.683867
  Angles:   90.000000  90.000000  71.565053

Effective grid spacing dv^(1/3) = 0.1710

     iter     time        total  log10-change:
                         energy  eigst   dens
iter:   1 07:12:49 -4309.876584  -3.57
iter:   2 07:13:43 -4309.863385  -4.62  -3.10
iter:   3 07:14:46 -4309.861231c -4.92  -3.28
iter:   4 07:15:36 -4309.859586c -5.27  -3.39
iter:   5 07:16:36 -4309.858609c -4.92  -3.50
iter:   6 07:17:31 -4309.858314c -5.51  -3.83
iter:   7 07:18:21 -4309.858413c -6.30  -4.12c
iter:   8 07:19:20 -4309.858308c -6.88  -4.23c
iter:   9 07:20:24 -4309.858276c -5.76  -4.28c
iter:  10 07:21:19 -4309.858235c -7.09  -4.53c
iter:  11 07:22:08 -4309.858234c -6.98  -4.75c
iter:  12 07:23:02 -4309.858233c -8.22c -4.93c

Converged after 12 iterations.

Dipole moment: (-8.744688, -32.376363, 0.000831) |e|*Ang

Energy contributions relative to reference atoms: (reference = -2506488.095795)

Kinetic:       +443.776198
Potential:     -482.761466
External:        +0.000000
XC:            -4269.716614
Entropy (-ST):   -0.582263
Local:           -0.865220
Free energy:   -4310.149364
Extrapolated:  -4309.858233

Showing only first 2 kpts
 Kpt  Band  Eigenvalues  Occupancy
  0   316     -0.67882    1.94480
  0   317     -0.56003    1.82964
  0   318     -0.35720    1.17113
  0   319     -0.27502    0.76636

  1   316     -0.61824    1.90110
  1   317     -0.54950    1.81250
  1   318     -0.50743    1.72778
  1   319     -0.37832    1.27146

Fermi level: -0.32263

No gap

Forces in eV/Ang:
  0 Cu   -0.00415   -0.00263    0.00578
  1 Cu    0.00562   -0.00524    0.00737
  2 Cu    0.00609    0.00287    0.00494
  3 Cu    0.00306    0.00053    0.01039
  4 Cu   -0.00396    0.00378   -0.01354
  5 Cu   -0.00775   -0.00384   -0.00672
  6 Cu   -0.00054   -0.00082    0.00164
  7 Cu   -0.00290   -0.00253    0.00678
  8 Cu    0.00086   -0.00104   -0.01380
  9 Cu   -0.00294    0.00333    0.00433
 10 Cu    0.00402    0.00220   -0.01139
 11 Cu   -0.00704    0.00071   -0.01314
 12 Cu    0.00843    0.00718    0.01119
 13 Cu    0.00372    0.00273   -0.00615
 14 Cu   -0.00635   -0.00283    0.01068
 15 Cu    0.00378    0.00464   -0.01476
 16 Cu   -0.00663   -0.00789   -0.00311
 17 Cu   -0.01165   -0.00446   -0.00168
 18 Cu    0.00170    0.00124   -0.00059
 19 Cu   -0.00260   -0.00078   -0.00579
 20 Cu   -0.00407   -0.00068   -0.00065
 21 Cu   -0.00481    0.00095    0.00359
 22 Cu    0.00378   -0.00012    0.00425
 23 Cu    0.00368    0.00355    0.00954
 24 Cu   -0.00360   -0.00360   -0.01021
 25 Cu    0.00380   -0.00201   -0.01313
 26 Cu    0.00268    0.00720   -0.00579
 27 Cu    0.00392    0.00091    0.00054
 28 Cu    0.00215    0.00092    0.00712
 29 Cu    0.00708    0.00345   -0.00299
 30 Cu   -0.00724   -0.00262    0.00374
 31 Cu    0.01184    0.00414    0.00265
 32 Cu    0.00632    0.00772    0.00243
 33 Cu   -0.00238   -0.00663    0.00517
 34 Cu   -0.00400    0.00207    0.01267
 35 Cu   -0.00396   -0.00440    0.01448
 36 Cu    0.00633    0.00326   -0.01086
 37 Cu   -0.00392    0.00027   -0.00500
 38 Cu    0.00503   -0.00036   -0.00433
 39 Cu   -0.00377   -0.00258    0.00597
 40 Cu   -0.00814   -0.00655   -0.01066
 41 Cu   -0.00184   -0.00103    0.00151
 42 Cu    0.00750   -0.00094    0.01208
 43 Cu    0.00314    0.00322   -0.00560
 44 Cu    0.00041    0.00111   -0.00224
 45 Cu   -0.00398   -0.00200    0.01092
 46 Cu    0.00399   -0.00341    0.01325
 47 Cu   -0.00312   -0.00054   -0.01040
 48 Cu    0.00262   -0.00299   -0.00526
 49 Cu   -0.00519    0.00526   -0.00829
 50 Cu    0.00351    0.00226   -0.00563
 51 Cu   -0.00147    0.00165    0.01229
 52 Cu    0.00780    0.00433    0.00623
 53 Cu   -0.00671   -0.00292   -0.00576
 54 Cl   -0.00591    0.00483   -0.00818
 55 Cl    0.00627   -0.00450    0.00989
 56 Cl   -0.00999    0.00041   -0.00735
 57 Cl    0.00991   -0.00022    0.00826
 58 Cl   -0.01029   -0.01399   -0.00355
 59 Cl    0.00986    0.01401    0.00531