User:   thorkong@node024.cluster
Date:   Sat Oct  8 21:32:26 2022
Arch:   x86_64
Pid:    67365
Python: 3.10.5
gpaw:   /groups/kemi/thorkong/miniconda3/envs/gpaw22/lib/python3.10/site-packages/gpaw
_gpaw:  /groups/kemi/thorkong/miniconda3/envs/gpaw22/lib/python3.10/site-packages/
        _gpaw.cpython-310-x86_64-linux-gnu.so
ase:    /groups/kemi/thorkong/miniconda3/envs/gpaw22/lib/python3.10/site-packages/ase (version 3.22.1)
numpy:  /groups/kemi/thorkong/miniconda3/envs/gpaw22/lib/python3.10/site-packages/numpy (version 1.23.0)
scipy:  /groups/kemi/thorkong/miniconda3/envs/gpaw22/lib/python3.10/site-packages/scipy (version 1.8.1)
units:  Angstrom and eV
cores: 32
OpenMP: True
OMP_NUM_THREADS: 1

Input parameters:
  basis: dzp
  kpts: [4 4 1]
  mode: {ecut: 600.0,
         name: pw}
  xc: BEEF-vdW

System changes: positions, numbers, cell, pbc, initial_charges, initial_magmoms

Initialize ...

Cu-setup:
  name: Copper
  id: f1c4d45d90492f1bbfdcb091e8418fdf
  Z: 29.0
  valence: 11
  core: 18
  charge: 0.0
  file: /groups/kemi/thorkong/miniconda3/envs/gpaw22/share/gpaw/Cu.PBE.gz
  compensation charges: gauss, rc=0.33, lmax=2
  cutoffs: 2.06(filt), 2.43(core),
  valence states:
                energy  radius
    4s(1.00)    -4.609   1.164
    4p(0.00)    -0.698   1.164
    3d(10.00)    -5.039   1.058
    *s          22.603   1.164
    *p          26.513   1.164
    *d          22.172   1.058

  LCAO basis set for Cu:
    Name: dzp
    File: /groups/kemi/thorkong/miniconda3/envs/gpaw22/share/gpaw/Cu.dzp.basis.gz
    Number of radial functions: 5
    Number of spherical harmonics: 15
      l=0, rc=8.9688 Bohr: 4s-sz confined orbital
      l=2, rc=5.1719 Bohr: 3d-sz confined orbital
      l=0, rc=5.3281 Bohr: 4s-dz split-valence wave
      l=2, rc=3.1406 Bohr: 3d-dz split-valence wave
      l=1, rc=8.9688 Bohr: p-type Gaussian polarization

Cl-setup:
  name: Chlorine
  id: 726897f06f34e53cf8e33b5885a02604
  Z: 17.0
  valence: 7
  core: 10
  charge: 0.0
  file: /groups/kemi/thorkong/miniconda3/envs/gpaw22/share/gpaw/Cl.PBE.gz
  compensation charges: gauss, rc=0.25, lmax=2
  cutoffs: 1.40(filt), 1.49(core),
  valence states:
                energy  radius
    3s(2.00)   -20.689   0.794
    3p(5.00)    -8.594   0.794
    *s           6.523   0.794
    *p          18.617   0.794
    *d           0.000   0.794

  LCAO basis set for Cl:
    Name: dzp
    File: /groups/kemi/thorkong/miniconda3/envs/gpaw22/share/gpaw/Cl.dzp.basis.gz
    Number of radial functions: 5
    Number of spherical harmonics: 13
      l=0, rc=5.1719 Bohr: 3s-sz confined orbital
      l=1, rc=6.2656 Bohr: 3p-sz confined orbital
      l=0, rc=2.8281 Bohr: 3s-dz split-valence wave
      l=1, rc=3.5156 Bohr: 3p-dz split-valence wave
      l=2, rc=6.2656 Bohr: d-type Gaussian polarization

Reference energy: -2456268.298212

Spin-paired calculation

Convergence criteria:
 Maximum [total energy] change in last 3 cyles: 0.0005 eV / electron
 Maximum integral of absolute [dens]ity change: 0.0001 electrons / valence electron
 Maximum integral of absolute [eigenst]ate change: 4e-08 eV^2 / valence electron
 Maximum number of scf [iter]ations: 333
 (Square brackets indicate name in SCF output, whereas a 'c' in
 the SCF output indicates the quantity has converged.)

Symmetries present (total): 1

  ( 1  0  0)
  ( 0  1  0)
  ( 0  0  1)

16 k-points: 4 x 4 x 1 Monkhorst-Pack grid
8 k-points in the irreducible part of the Brillouin zone
       k-points in crystal coordinates                weights
   0:     0.12500000   -0.37500000    0.00000000          2/16
   1:     0.12500000   -0.12500000    0.00000000          2/16
   2:     0.12500000    0.12500000    0.00000000          2/16
   3:     0.12500000    0.37500000    0.00000000          2/16
   4:     0.37500000   -0.37500000    0.00000000          2/16
   5:     0.37500000   -0.12500000    0.00000000          2/16
   6:     0.37500000    0.12500000    0.00000000          2/16
   7:     0.37500000    0.37500000    0.00000000          2/16

Wave functions: Plane wave expansion
  Cutoff energy: 600.000 eV
  Number of coefficients (min, max): 54614, 54705
  Pulay-stress correction: 0.000000 eV/Ang^3 (de/decut=0.000000)
  Using FFTW library
  ScaLapack parameters: grid=2x2, blocksize=64
  Wavefunction extrapolation:
    Improved wavefunction reuse through dual PAW basis

Occupation numbers: Fermi-Dirac: width=0.1000 eV

Eigensolver
   Davidson(niter=2)

Densities:
  Coarse grid: 45*45*175 grid
  Fine grid: 90*90*350 grid
  Total Charge: 0.000000

Density mixing:
  Method: separate
  Backend: pulay
  Linear mixing parameter: 0.05
  Mixing with 5 old densities
  Damping of long wave oscillations: 50

Hamiltonian:
  XC and Coulomb potentials evaluated on a 90*90*350 grid
  Using the BEEF-vdW Exchange-Correlation functional
  External potential:
    NoExternalPotential

XC parameters: BEEF-vdW with 2 nearest neighbor stencil

Total number of cores used: 32
Parallelization over k-points: 8
Domain decomposition: 1 x 1 x 4
                      2 x 2 x 8 (xc only)

Number of atoms: 56
Number of atomic orbitals: 836
Number of bands in calculation: 369
Number of valence electrons: 608
Bands to converge: occupied

... initialized

Initializing position-dependent things.

Density initialized from atomic densities
Creating initial wave functions:
  369 bands from LCAO basis set

                      Cl
                        Cu    Cu     Cu

                   Cu     Cu    Cu
               Cu   CCu    CCu   Cu

[...]

            Cu    Cu    CCu   Cu     Cu
       Cu     Cu   CCu    Cu    Cu

               Cu   CCu    CCu   Cu
               Cu     Cu     Cu

[...]

       Cu     Cu    Cu
                      Cl

Positions:
   0 Cu     2.896636   -0.001755   10.002362    ( 0.0000,  0.0000,  0.0000)
   1 Cu     4.168776    2.246971   10.039010    ( 0.0000,  0.0000,  0.0000)
   2 Cu     0.274885   -0.001154   10.002792    ( 0.0000,  0.0000,  0.0000)
   3 Cu     1.585239    2.269666   10.002363    ( 0.0000,  0.0000,  0.0000)
   4 Cu     2.891962    3.027351   12.148866    ( 0.0000,  0.0000,  0.0000)
   5 Cu     1.586925    0.756363   12.125352    ( 0.0000,  0.0000,  0.0000)
   6 Cu     5.512505    3.022792   12.172434    ( 0.0000,  0.0000,  0.0000)
   7 Cu     4.206179    0.751054   12.148872    ( 0.0000,  0.0000,  0.0000)
   8 Cu     5.511183    1.504379   14.282466    ( 0.0000,  0.0000,  0.0000)
   9 Cu     6.826411    3.781376   14.282642    ( 0.0000,  0.0000,  0.0000)
  10 Cu     2.892803    1.510307   14.266847    ( 0.0000,  0.0000,  0.0000)
  11 Cu     4.196863    3.780851   14.282465    ( 0.0000,  0.0000,  0.0000)
  12 Cu     2.889614    0.001553   16.405336    ( 0.0000,  0.0000,  0.0000)
  13 Cu     4.195384    2.262350   16.401036    ( 0.0000,  0.0000,  0.0000)
  14 Cu     0.280458    0.002067   16.405097    ( 0.0000,  0.0000,  0.0000)
  15 Cu     1.584590    2.261919   16.405337    ( 0.0000,  0.0000,  0.0000)
  16 Cu     2.889341    3.016754   18.534879    ( 0.0000,  0.0000,  0.0000)
  17 Cu     1.583932    0.754630   18.577267    ( 0.0000,  0.0000,  0.0000)
  18 Cu     5.509283    3.020929   18.511270    ( 0.0000,  0.0000,  0.0000)
  19 Cu     4.195691    0.754088   18.534876    ( 0.0000,  0.0000,  0.0000)
  20 Cu     5.511630    1.471634   20.642190    ( 0.0000,  0.0000,  0.0000)
  21 Cu     6.853063    3.796755   20.644682    ( 0.0000,  0.0000,  0.0000)
  22 Cu     2.903377    1.516415   20.710410    ( 0.0000,  0.0000,  0.0000)
  23 Cu     4.168770    3.797578   20.642189    ( 0.0000,  0.0000,  0.0000)
  24 Cu     5.510201    4.572094   10.041505    ( 0.0000,  0.0000,  0.0000)
  25 Cu     2.903979    4.526888    9.973632    ( 0.0000,  0.0000,  0.0000)
  26 Cu     4.198734    5.290807   12.148756    ( 0.0000,  0.0000,  0.0000)
  27 Cu     6.826093    5.289641   12.148851    ( 0.0000,  0.0000,  0.0000)
  28 Cu     8.132180    6.042178   14.278338    ( 0.0000,  0.0000,  0.0000)
  29 Cu     5.510938    6.046064   14.266569    ( 0.0000,  0.0000,  0.0000)
  30 Cu     5.510611    4.539349   16.401211    ( 0.0000,  0.0000,  0.0000)
  31 Cu     2.891836    4.533928   16.417111    ( 0.0000,  0.0000,  0.0000)
  32 Cu     4.202000    5.292697   18.534962    ( 0.0000,  0.0000,  0.0000)
  33 Cu     6.815594    5.292670   18.534847    ( 0.0000,  0.0000,  0.0000)
  34 Cu     8.125134    6.045492   20.681358    ( 0.0000,  0.0000,  0.0000)
  35 Cu     5.510943    6.032044   20.710084    ( 0.0000,  0.0000,  0.0000)
  36 Cu     5.510828    0.011679    9.973630    ( 0.0000,  0.0000,  0.0000)
  37 Cu     6.853103    2.246116   10.041510    ( 0.0000,  0.0000,  0.0000)
  38 Cu     8.132445    3.026973   12.148850    ( 0.0000,  0.0000,  0.0000)
  39 Cu     6.819775    0.751023   12.148762    ( 0.0000,  0.0000,  0.0000)
  40 Cu     8.129952    1.509800   14.266569    ( 0.0000,  0.0000,  0.0000)
  41 Cu     9.437210    3.781803   14.278336    ( 0.0000,  0.0000,  0.0000)
  42 Cu     5.510853   -0.002343   16.417111    ( 0.0000,  0.0000,  0.0000)
  43 Cu     6.824936    2.262872   16.401209    ( 0.0000,  0.0000,  0.0000)
  44 Cu     8.129821    3.016364   18.534845    ( 0.0000,  0.0000,  0.0000)
  45 Cu     6.823050    0.752910   18.534959    ( 0.0000,  0.0000,  0.0000)
  46 Cu     8.117819    1.516814   20.710088    ( 0.0000,  0.0000,  0.0000)
  47 Cu     9.436562    3.774056   20.681358    ( 0.0000,  0.0000,  0.0000)
  48 Cu     8.118414    4.527315    9.973297    ( 0.0000,  0.0000,  0.0000)
  49 Cu     9.437855    5.289093   12.106453    ( 0.0000,  0.0000,  0.0000)
  50 Cu    10.741343    6.041660   14.278575    ( 0.0000,  0.0000,  0.0000)
  51 Cu     8.128997    4.533424   16.416831    ( 0.0000,  0.0000,  0.0000)
  52 Cu     9.434847    5.287360   18.558388    ( 0.0000,  0.0000,  0.0000)
  53 Cu    10.746886    6.044855   20.680930    ( 0.0000,  0.0000,  0.0000)
  54 Cl     5.508593    3.020491   22.906545    ( 0.0000,  0.0000,  0.0000)
  55 Cl     5.513297    3.023213    7.777158    ( 0.0000,  0.0000,  0.0000)

Unit cell:
           periodic     x           y           z      points  spacing
  1. axis:    yes    7.851007    0.000000    0.000000    45     0.1511
  2. axis:    yes    3.925503    6.799171    0.000000    45     0.1511
  3. axis:    yes    0.000000    0.000000   30.683867   175     0.1753

  Lengths:   7.851007   7.851006  30.683867
  Angles:   90.000000  90.000000  60.000001

Effective grid spacing dv^(1/3) = 0.1666

     iter     time        total  log10-change:
                         energy  eigst   dens
iter:   1 21:37:19 -4202.085627
iter:   2 21:38:06 -4187.146925  -1.05  -1.16
iter:   3 21:38:48 -4179.218130  -1.18  -1.26
iter:   4 21:39:29 -4167.058946  -1.14  -1.32
iter:   5 21:40:11 -4163.889100  -1.67  -1.57
iter:   6 21:40:55 -4167.891549  -1.94  -1.73
iter:   7 21:41:37 -4163.160876  -2.05  -1.71
iter:   8 21:42:18 -4162.965946  -2.37  -2.13
iter:   9 21:43:00 -4162.029088  -3.16  -2.22
iter:  10 21:43:42 -4161.924531  -3.24  -2.56
iter:  11 21:44:27 -4161.891927c -3.18  -2.58
iter:  12 21:45:30 -4161.884203c -4.20  -2.88
iter:  13 21:46:13 -4161.874417c -4.29  -3.01
iter:  14 21:46:55 -4161.873660c -4.74  -3.05
iter:  15 21:47:37 -4161.872260c -5.04  -3.09
iter:  16 21:48:19 -4161.872145c -4.87  -3.18
iter:  17 21:49:04 -4161.868155c -4.44  -3.32
iter:  18 21:49:48 -4161.867568c -5.62  -3.66
iter:  19 21:50:32 -4161.866883c -5.41  -3.89
iter:  20 21:51:16 -4161.866945c -6.11  -3.99
iter:  21 21:52:12 -4161.866988c -6.37  -4.05c
iter:  22 21:53:08 -4161.866991c -7.01  -4.20c
iter:  23 21:53:59 -4161.866958c -7.00  -4.24c
iter:  24 21:54:45 -4161.866946c -7.28  -4.30c
iter:  25 21:55:27 -4161.866972c -7.09  -4.38c
iter:  26 21:56:10 -4161.866953c -7.69c -4.67c

Converged after 26 iterations.

Dipole moment: (-9.094479, -0.350693, -0.000185) |e|*Ang

Energy contributions relative to reference atoms: (reference = -2456268.298212)

Kinetic:       +381.513993
Potential:     -428.300133
External:        +0.000000
XC:            -4114.031054
Entropy (-ST):   -0.528031
Local:           -0.785744
Free energy:   -4162.130969
Extrapolated:  -4161.866953

Showing only first 2 kpts
 Kpt  Band  Eigenvalues  Occupancy
  0   302     -0.17168    1.11375
  0   303     -0.13472    0.92957
  0   304     -0.00599    0.38669
  0   305      0.13725    0.10825

  1   302     -0.73969    1.99458
  1   303     -0.54690    1.96334
  1   304     -0.42673    1.88305
  1   305     -0.12379    0.87540

Fermi level: -0.14883

No gap

Forces in eV/Ang:
  0 Cu   -0.00564    0.00083    0.07577
  1 Cu    0.22711    0.13117   -0.36999
  2 Cu    0.00375    0.00221    0.07986
  3 Cu   -0.00215   -0.00522    0.07576
  4 Cu    0.07088   -0.00076   -0.10955
  5 Cu   -0.00158   -0.00086   -0.00131
  6 Cu   -0.00178   -0.00099   -0.10931
  7 Cu    0.03474    0.06184   -0.10957
  8 Cu    0.01131    0.02563    0.00756
  9 Cu   -0.02555   -0.01470    0.00889
 10 Cu   -0.02691   -0.01549   -0.00423
 11 Cu    0.02780   -0.00294    0.00756
 12 Cu   -0.00325   -0.00693    0.08168
 13 Cu    0.02539    0.01471   -0.00844
 14 Cu   -0.00523   -0.00296    0.08103
 15 Cu   -0.00767    0.00073    0.08167
 16 Cu    0.06475    0.00364    0.10669
 17 Cu   -0.00394   -0.00222   -0.02834
 18 Cu    0.00166    0.00100    0.10950
 19 Cu    0.03548    0.05433    0.10670
 20 Cu   -0.00376    0.25409    0.37300
 21 Cu   -0.22720   -0.13114    0.37028
 22 Cu   -0.14224   -0.08207   -0.15656
 23 Cu    0.21808   -0.13022    0.37298
 24 Cu    0.00363   -0.25413   -0.37272
 25 Cu   -0.14397    0.08923    0.15680
 26 Cu    0.03524   -0.05869   -0.10593
 27 Cu   -0.03568   -0.05437   -0.10664
 28 Cu    0.00308    0.00694   -0.08131
 29 Cu    0.00570    0.02715   -0.00005
 30 Cu   -0.01148   -0.02561   -0.00710
 31 Cu   -0.02648    0.00857    0.00040
 32 Cu    0.03308   -0.05986    0.10600
 33 Cu   -0.03482   -0.06176    0.10963
 34 Cu    0.00549   -0.00081   -0.07528
 35 Cu   -0.00535    0.16916   -0.15633
 36 Cu    0.00524   -0.16922    0.15681
 37 Cu   -0.21836    0.13031   -0.37274
 38 Cu   -0.06497   -0.00363   -0.10663
 39 Cu   -0.03325    0.05994   -0.10594
 40 Cu    0.02631   -0.00856   -0.00004
 41 Cu    0.00750   -0.00072   -0.08130
 42 Cu   -0.00586   -0.02714    0.00039
 43 Cu   -0.02796    0.00294   -0.00709
 44 Cu   -0.07093    0.00080    0.10964
 45 Cu   -0.03534    0.05865    0.10600
 46 Cu    0.14377   -0.08914   -0.15634
 47 Cu    0.00202    0.00521   -0.07527
 48 Cu    0.14218    0.08214    0.15706
 49 Cu    0.00378    0.00224    0.02858
 50 Cu    0.00507    0.00298   -0.08065
 51 Cu    0.02674    0.01549    0.00461
 52 Cu    0.00138    0.00086    0.00150
 53 Cu   -0.00388   -0.00221   -0.07935
 54 Cl    0.00382    0.00221   -1.08248
 55 Cl   -0.00384   -0.00221    1.08152

System changes: positions

[...]

Density initialized from wave functions

[...]

               Cu   CCu    CCu   Cu

[...]

     iter     time        total  log10-change:
                         energy  eigst   dens
iter:   1 22:41:51 -4162.723724  -2.77
iter:   2 22:42:34 -4162.435584  -3.24  -2.48
iter:   3 22:43:17 -4162.428847c -4.64  -3.09
iter:   4 22:43:59 -4162.441660c -4.37  -3.14
iter:   5 22:44:41 -4162.418131c -4.27  -3.01
iter:   6 22:45:24 -4162.416356c -4.95  -3.54
iter:   7 22:46:06 -4162.418182c -4.73  -3.59
iter:   8 22:46:48 -4162.417513c -6.14  -3.83
iter:   9 22:47:30 -4162.416277c -5.12  -3.93
iter:  10 22:48:16 -4162.416538c -6.24  -4.04c
iter:  11 22:49:04 -4162.416147c -5.63  -3.96
iter:  12 22:49:46 -4162.416005c -6.70  -4.23c
iter:  13 22:50:28 -4162.416003c -6.72  -4.48c
iter:  14 22:51:10 -4162.416010c -7.77c -4.61c

[...]

System changes: positions

Initializing position-dependent things.

Density initialized from wave functions

                      Cl
                        Cu    Cu     Cu
                   Cu     Cu    Cu

[...]

                Cu    Cu    Cu
           Cu   CCu    CCu   Cu

            Cu    Cu    CCu   Cu     Cu
       Cu     Cu   CCu    Cu    Cu

               Cu   CCu    CCu   Cu
                Cu    Cu    Cu

           Cu   CCu    CCu   Cu

            Cu    Cu     Cu
       Cu     Cu    Cu
                      Cl

Positions:
   0 Cu     2.892070    0.001171   10.020850    ( 0.0000,  0.0000,  0.0000)
   1 Cu     4.169996    2.247710    9.962199    ( 0.0000,  0.0000,  0.0000)
   2 Cu     0.279952    0.001804   10.022098    ( 0.0000,  0.0000,  0.0000)
   3 Cu     1.585462    2.264297   10.020848    ( 0.0000,  0.0000,  0.0000)
   4 Cu     2.913350    3.017946   12.117167    ( 0.0000,  0.0000,  0.0000)
   5 Cu     1.586943    0.756403   12.142658    ( 0.0000,  0.0000,  0.0000)
   6 Cu     5.513170    3.023206   12.124921    ( 0.0000,  0.0000,  0.0000)
   7 Cu     4.208705    0.774324   12.117167    ( 0.0000,  0.0000,  0.0000)
   8 Cu     5.513591    1.509238   14.272783    ( 0.0000,  0.0000,  0.0000)
   9 Cu     6.823043    3.779464   14.274281    ( 0.0000,  0.0000,  0.0000)
  10 Cu     2.891325    1.509485   14.270251    ( 0.0000,  0.0000,  0.0000)
  11 Cu     4.202245    3.780557   14.272783    ( 0.0000,  0.0000,  0.0000)
  12 Cu     2.896092   -0.004925   16.428932    ( 0.0000,  0.0000,  0.0000)
  13 Cu     4.198671    2.264280   16.409235    ( 0.0000,  0.0000,  0.0000)
  14 Cu     0.270492   -0.003655   16.427922    ( 0.0000,  0.0000,  0.0000)
  15 Cu     1.582192    2.270818   16.428931    ( 0.0000,  0.0000,  0.0000)
  16 Cu     2.908684    3.026262   18.564979    ( 0.0000,  0.0000,  0.0000)
  17 Cu     1.582571    0.753873   18.536173    ( 0.0000,  0.0000,  0.0000)
  18 Cu     5.508528    3.020522   18.558707    ( 0.0000,  0.0000,  0.0000)
  19 Cu     4.213572    0.766128   18.564978    ( 0.0000,  0.0000,  0.0000)
  20 Cu     5.510454    1.470120   20.719073    ( 0.0000,  0.0000,  0.0000)
  21 Cu     6.851715    3.796006   20.721591    ( 0.0000,  0.0000,  0.0000)
  22 Cu     2.870756    1.497603   20.658336    ( 0.0000,  0.0000,  0.0000)
  23 Cu     4.166831    3.797368   20.719072    ( 0.0000,  0.0000,  0.0000)
  24 Cu     5.511281    4.573648    9.964724    ( 0.0000,  0.0000,  0.0000)
  25 Cu     2.872642    4.546957   10.024891    ( 0.0000,  0.0000,  0.0000)
  26 Cu     4.217762    5.278051   12.118338    ( 0.0000,  0.0000,  0.0000)
  27 Cu     6.808142    5.277634   12.118722    ( 0.0000,  0.0000,  0.0000)
  28 Cu     8.125635    6.048665   14.254724    ( 0.0000,  0.0000,  0.0000)
  29 Cu     5.512876    6.048846   14.270796    ( 0.0000,  0.0000,  0.0000)
  30 Cu     5.508121    4.534502   16.410731    ( 0.0000,  0.0000,  0.0000)
  31 Cu     2.888425    4.533601   16.412844    ( 0.0000,  0.0000,  0.0000)
  32 Cu     4.203491    5.269781   18.565365    ( 0.0000,  0.0000,  0.0000)
  33 Cu     6.812972    5.269389   18.566529    ( 0.0000,  0.0000,  0.0000)
  34 Cu     8.129607    6.042573   20.662768    ( 0.0000,  0.0000,  0.0000)
  35 Cu     5.509185    6.069218   20.658759    ( 0.0000,  0.0000,  0.0000)
  36 Cu     5.512517   -0.025470   10.024891    ( 0.0000,  0.0000,  0.0000)
  37 Cu     6.854955    2.246328    9.964731    ( 0.0000,  0.0000,  0.0000)
  38 Cu     8.113051    3.017471   12.118724    ( 0.0000,  0.0000,  0.0000)
  39 Cu     6.818223    0.773922   12.118340    ( 0.0000,  0.0000,  0.0000)
  40 Cu     8.133301    1.510134   14.270799    ( 0.0000,  0.0000,  0.0000)
  41 Cu     9.439526    3.772941   14.254724    ( 0.0000,  0.0000,  0.0000)
  42 Cu     5.508837   -0.005088   16.412842    ( 0.0000,  0.0000,  0.0000)
  43 Cu     6.819465    2.263186   16.410731    ( 0.0000,  0.0000,  0.0000)
  44 Cu     8.108336    3.025771   18.566528    ( 0.0000,  0.0000,  0.0000)
  45 Cu     6.803933    0.765694   18.565362    ( 0.0000,  0.0000,  0.0000)
  46 Cu     8.149112    1.496737   20.658757    ( 0.0000,  0.0000,  0.0000)
  47 Cu     9.436245    3.779424   20.662769    ( 0.0000,  0.0000,  0.0000)
  48 Cu     8.150960    4.546132   10.025314    ( 0.0000,  0.0000,  0.0000)
  49 Cu     9.439122    5.289856   12.147451    ( 0.0000,  0.0000,  0.0000)
  50 Cu    10.751202    6.047386   14.255724    ( 0.0000,  0.0000,  0.0000)
  51 Cu     8.130371    4.534249   16.413375    ( 0.0000,  0.0000,  0.0000)
  52 Cu     9.434738    5.287328   18.540974    ( 0.0000,  0.0000,  0.0000)
  53 Cu    10.741737    6.041911   20.661523    ( 0.0000,  0.0000,  0.0000)
  54 Cl     5.510979    3.021882   22.628867    ( 0.0000,  0.0000,  0.0000)
  55 Cl     5.510877    3.021827    8.054980    ( 0.0000,  0.0000,  0.0000)

Unit cell:
           periodic     x           y           z      points  spacing
  1. axis:    yes    7.851007    0.000000    0.000000    45     0.1511
  2. axis:    yes    3.925503    6.799171    0.000000    45     0.1511
  3. axis:    yes    0.000000    0.000000   30.683867   175     0.1753

  Lengths:   7.851007   7.851006  30.683867
  Angles:   90.000000  90.000000  60.000001

Effective grid spacing dv^(1/3) = 0.1666

     iter     time        total  log10-change:
                         energy  eigst   dens
iter:   1 22:52:16 -4162.431546  -3.42
iter:   2 22:53:10 -4162.431271  -4.61  -3.23
iter:   3 22:54:09 -4162.426826c -5.07  -3.23
iter:   4 22:55:00 -4162.423239c -4.53  -3.33
iter:   5 22:55:47 -4162.423037c -5.43  -3.74
iter:   6 22:56:29 -4162.422587c -5.16  -3.85
iter:   7 22:57:11 -4162.422683c -6.15  -3.96
iter:   8 22:58:06 -4162.422545c -5.91  -4.11c
iter:   9 22:58:56 -4162.422535c -6.95  -4.38c
iter:  10 22:59:39 -4162.422509c -7.24  -4.49c
iter:  11 23:00:24 -4162.422480c -7.35  -4.55c
iter:  12 23:01:06 -4162.422444c -7.06  -4.66c
iter:  13 23:01:49 -4162.422446c -8.02c -4.92c

Converged after 13 iterations.

Dipole moment: (-6.340148, 2.000614, 0.000006) |e|*Ang

Energy contributions relative to reference atoms: (reference = -2456268.298212)

Kinetic:       +388.276523
Potential:     -433.578826
External:        +0.000000
XC:            -4116.129792
Entropy (-ST):   -0.525377
Local:           -0.727663
Free energy:   -4162.685134
Extrapolated:  -4162.422446

Showing only first 2 kpts
 Kpt  Band  Eigenvalues  Occupancy
  0   302      0.11302    1.14581
  0   303      0.14543    0.98479
  0   304      0.28904    0.37496
  0   305      0.43573    0.10106

  1   302     -0.38410    1.98971
  1   303     -0.26367    1.96611
  1   304     -0.12774    1.87420
  1   305      0.15917    0.91629

Fermi level: 0.14239

No gap

Forces in eV/Ang:
  0 Cu   -0.00054    0.00146    0.00381
  1 Cu    0.00464    0.00269    0.00816
  2 Cu    0.00335    0.00198    0.00322
  3 Cu    0.00095   -0.00113    0.00381
  4 Cu   -0.00634    0.00144    0.01625
  5 Cu    0.00116    0.00071    0.01577
  6 Cu    0.00117    0.00072   -0.02727
  7 Cu   -0.00196   -0.00615    0.01625
  8 Cu    0.00102    0.01328   -0.00739
  9 Cu   -0.00996   -0.00570   -0.00747
 10 Cu    0.00494    0.00290    0.01996
 11 Cu    0.01196   -0.00567   -0.00739
 12 Cu   -0.00058   -0.00131   -0.01228
 13 Cu    0.00984    0.00573    0.00775
 14 Cu   -0.00152   -0.00083   -0.01247
 15 Cu   -0.00146    0.00023   -0.01228
 16 Cu   -0.00963   -0.00134   -0.01715
 17 Cu   -0.00180   -0.00101   -0.01227
 18 Cu   -0.00126   -0.00070    0.02714
 19 Cu   -0.00601   -0.00761   -0.01716
 20 Cu   -0.00146    0.00309   -0.00830
 21 Cu   -0.00461   -0.00261   -0.00842
 22 Cu   -0.00448   -0.00254   -0.02397
 23 Cu    0.00193   -0.00275   -0.00830
 24 Cu    0.00138   -0.00324    0.00802
 25 Cu   -0.00160    0.00290    0.02326
 26 Cu   -0.00334    0.00750    0.01695
 27 Cu    0.00597    0.00769    0.01680
 28 Cu    0.00038    0.00133    0.01217
 29 Cu    0.00092   -0.00425    0.02041
 30 Cu   -0.00117   -0.01330    0.00770
 31 Cu    0.00315   -0.00300   -0.02048
 32 Cu   -0.00489    0.00653   -0.01732
 33 Cu    0.00188    0.00610   -0.01663
 34 Cu    0.00048   -0.00147   -0.00371
 35 Cu   -0.00179    0.00265   -0.02324
 36 Cu    0.00168   -0.00278    0.02326
 37 Cu   -0.00217    0.00286    0.00803
 38 Cu    0.00960    0.00139    0.01680
 39 Cu    0.00478   -0.00657    0.01695
 40 Cu   -0.00327    0.00300    0.02041
 41 Cu    0.00129   -0.00025    0.01217
 42 Cu   -0.00107    0.00431   -0.02048
 43 Cu   -0.01215    0.00571    0.00770
 44 Cu    0.00618   -0.00136   -0.01662
 45 Cu    0.00318   -0.00744   -0.01732
 46 Cu    0.00137   -0.00281   -0.02324
 47 Cu   -0.00107    0.00121   -0.00371
 48 Cu    0.00450    0.00263    0.02399
 49 Cu    0.00171    0.00103    0.01218
 50 Cu    0.00142    0.00087    0.01241
 51 Cu   -0.00512   -0.00291   -0.01997
 52 Cu   -0.00129   -0.00070   -0.01599
 53 Cu   -0.00354   -0.00200   -0.00315
 54 Cl    0.00200    0.00119   -0.02383
 55 Cl   -0.00212   -0.00119    0.02415