User:   hhkri@a019.nifl.fysik.dtu.dk
Date:   Tue Feb 15 03:20:20 2022
Arch:   x86_64
Pid:    39462
Python: 3.6.6
gpaw:   /home/modules/software/GPAW/19.8.1-intel-2018b-ASE-3.18.0-Python-3.6.6/lib/python3.6/site-packages/gpaw
_gpaw:  /home/modules/software/GPAW/19.8.1-intel-2018b-ASE-3.18.0-Python-3.6.6/bin/
        gpaw-python
ase:    /home/modules/software/ASE/3.18.0-intel-2018b-Python-3.6.6/lib/python3.6/site-packages/ase (version 3.18.0)
numpy:  /home/modules/software/Python/3.6.6-intel-2018b/lib/python3.6/site-packages/numpy-1.15.0-py3.6-linux-x86_64.egg/numpy (version 1.15.0)
scipy:  /home/modules/software/Python/3.6.6-intel-2018b/lib/python3.6/site-packages/scipy-1.1.0-py3.6-linux-x86_64.egg/scipy (version 1.1.0)
units:  Angstrom and eV
cores:  80

Input parameters:
  basis: dzp
  kpts: [4 4 1]
  mode: {ecut: 600.0,
         gammacentered: False,
         name: pw}
  xc: BEEF-vdW

System changes: positions, numbers, cell, pbc, initial_charges, initial_magmoms

Initialize ...

Cu-setup:
  name: Copper
  id: f1c4d45d90492f1bbfdcb091e8418fdf
  Z: 29
  valence: 11
  core: 18
  charge: 0.0
  file: /home/modules/software/GPAW-setups/0.9.20000/Cu.PBE.gz
  compensation charges: gauss, rc=0.33, lmax=2
  cutoffs: 2.06(filt), 2.43(core),
  valence states:
                energy  radius
    4s(1.00)    -4.609   1.164
    4p(0.00)    -0.698   1.164
    3d(10.00)    -5.039   1.058
    *s          22.603   1.164
    *p          26.513   1.164
    *d          22.172   1.058

  LCAO basis set for Cu:
    Name: dzp
    File: /home/modules/software/GPAW-setups/0.9.20000/Cu.dzp.basis.gz
    Number of radial functions: 5
    Number of spherical harmonics: 15
      l=0, rc=8.9688 Bohr: 4s-sz confined orbital
      l=2, rc=5.1719 Bohr: 3d-sz confined orbital
      l=0, rc=5.3281 Bohr: 4s-dz split-valence wave
      l=2, rc=3.1406 Bohr: 3d-dz split-valence wave
      l=1, rc=8.9688 Bohr: p-type Gaussian polarization

Reference energy: -3241544.532561

Spin-paired calculation

Occupation numbers:
  Fermi-Dirac: width=0.1000 eV

Convergence criteria:
  Maximum total energy change: 0.0005 eV / electron
  Maximum integral of absolute density change: 0.0001 electrons
  Maximum integral of absolute eigenstate change: 4e-08 eV^2
  Maximum number of iterations: 333

Symmetries present (total): 2

  ( 1  0  0)  ( 1  0  0)
  ( 0  1  0)  ( 0 -1  0)
  ( 0  0  1)  ( 0  0  1)

16 k-points: 4 x 4 x 1 Monkhorst-Pack grid
4 k-points in the irreducible part of the Brillouin zone
       k-points in crystal coordinates                weights
   0:     0.12500000    0.12500000    0.00000000          4/16
   1:     0.12500000    0.37500000    0.00000000          4/16
   2:     0.37500000    0.12500000    0.00000000          4/16
   3:     0.37500000    0.37500000    0.00000000          4/16

Wave functions: Plane wave expansion
  Cutoff energy: 600.000 eV
  Number of coefficients (min, max): 66642, 66743
  Pulay-stress correction: 0.000000 eV/Ang^3 (de/decut=0.000000)
  Using FFTW library
  ScaLapack parameters: grid=1x1, blocksize=None
  Wavefunction extrapolation:
    Improved wavefunction reuse through dual PAW basis

Eigensolver
   Davidson(niter=2, smin=None, normalize=True)

Densities:
  Coarse grid: 45*42*196 grid
  Fine grid: 90*84*392 grid
  Total Charge: 0.000000

Density mixing:
  Method: separate
  Backend: pulay
  Linear mixing parameter: 0.05
  Mixing with 5 old densities
  Damping of long wave oscillations: 50

Hamiltonian:
  XC and Coulomb potentials evaluated on a 90*84*392 grid
  Using the BEEF-vdW Exchange-Correlation functional

XC parameters: BEEF-vdW with 2 nearest neighbor stencil

Total number of cores used: 80
Parallelization over k-points: 4
Domain decomposition: 2 x 2 x 5

Number of atoms: 72
Number of atomic orbitals: 1080
Number of bands in calculation: 480
Bands to converge: occupied states only
Number of valence electrons: 792

... initialized

Initializing position-dependent things.

Density initialized from atomic densities
Creating initial wave functions:
  480 bands from LCAO basis set

 |    |  Cu    Cu    Cu  |
 |  CuCu   CCu   CuCu    |
 |    |  Cu    Cu    Cu  |
 |Cu  CuCu  CuCu   Cu    |
 |  Cu|  CuCu  CuCu  Cu  |
 |Cu  CuCu  CuCu   Cu    |
 |  Cu|  CuCu  CuCu  Cu  |
 |Cu  | Cu    Cu         |
 |  CuCu CuCCu CuCuCuCu  |
 |Cu  | Cu    Cu         |
 |  CuCu CuCCu CuCuCuCu  |
 |CuCuCuCu CCuCu CuCu    |
 |Cu  | Cu    Cu         |

Positions:
   0 Cu     2.893960    0.000000   10.000000    ( 0.0000,  0.0000,  0.0000)
   1 Cu     1.585459    1.850500   11.308501    ( 0.0000,  0.0000,  0.0000)
   2 Cu     4.202462    1.850500   11.308501    ( 0.0000,  0.0000,  0.0000)
   3 Cu     0.276958    0.000000   10.000000    ( 0.0000,  0.0000,  0.0000)
   4 Cu     0.276958    0.000000   12.617002    ( 0.0000,  0.0000,  0.0000)
   5 Cu     4.202462    1.850500   13.925503    ( 0.0000,  0.0000,  0.0000)
   6 Cu     1.585459    1.850500   13.925503    ( 0.0000,  0.0000,  0.0000)
   7 Cu     2.893960    0.000000   12.617002    ( 0.0000,  0.0000,  0.0000)
   8 Cu     2.893960    0.000000   15.234004    ( 0.0000,  0.0000,  0.0000)
   9 Cu     1.585459    1.850500   16.542505    ( 0.0000,  0.0000,  0.0000)
  10 Cu     4.202462    1.850500   16.542505    ( 0.0000,  0.0000,  0.0000)
  11 Cu     0.276958    0.000000   15.234004    ( 0.0000,  0.0000,  0.0000)
  12 Cu     0.276958    0.000000   17.851007    ( 0.0000,  0.0000,  0.0000)
  13 Cu     4.202462    1.850500   19.159508    ( 0.0000,  0.0000,  0.0000)
  14 Cu     1.585459    1.850500   19.159508    ( 0.0000,  0.0000,  0.0000)
  15 Cu     2.893960    0.000000   17.851007    ( 0.0000,  0.0000,  0.0000)
  16 Cu     2.893960    0.000000   20.468009    ( 0.0000,  0.0000,  0.0000)
  17 Cu     1.585459    1.850500   21.776510    ( 0.0000,  0.0000,  0.0000)
  18 Cu     4.202462    1.850500   21.776510    ( 0.0000,  0.0000,  0.0000)
  19 Cu     0.276958    0.000000   20.468009    ( 0.0000,  0.0000,  0.0000)
  20 Cu     0.276958    0.000000   23.085011    ( 0.0000,  0.0000,  0.0000)
  21 Cu     4.202462    1.850500   24.393512    ( 0.0000,  0.0000,  0.0000)
  22 Cu     1.585459    1.850500   24.393512    ( 0.0000,  0.0000,  0.0000)
  23 Cu     2.893960    0.000000   23.085011    ( 0.0000,  0.0000,  0.0000)
  24 Cu     2.893960    3.701000   10.000000    ( 0.0000,  0.0000,  0.0000)
  25 Cu     1.585459    5.551500   11.308501    ( 0.0000,  0.0000,  0.0000)
  26 Cu     4.202462    5.551500   11.308501    ( 0.0000,  0.0000,  0.0000)
  27 Cu     0.276958    3.701000   10.000000    ( 0.0000,  0.0000,  0.0000)
  28 Cu     0.276958    3.701000   12.617002    ( 0.0000,  0.0000,  0.0000)
  29 Cu     4.202462    5.551500   13.925503    ( 0.0000,  0.0000,  0.0000)
  30 Cu     1.585459    5.551500   13.925503    ( 0.0000,  0.0000,  0.0000)
  31 Cu     2.893960    3.701000   12.617002    ( 0.0000,  0.0000,  0.0000)
  32 Cu     2.893960    3.701000   15.234004    ( 0.0000,  0.0000,  0.0000)
  33 Cu     1.585459    5.551500   16.542505    ( 0.0000,  0.0000,  0.0000)
  34 Cu     4.202462    5.551500   16.542505    ( 0.0000,  0.0000,  0.0000)
  35 Cu     0.276958    3.701000   15.234004    ( 0.0000,  0.0000,  0.0000)
  36 Cu     0.276958    3.701000   17.851007    ( 0.0000,  0.0000,  0.0000)
  37 Cu     4.202462    5.551500   19.159508    ( 0.0000,  0.0000,  0.0000)
  38 Cu     1.585459    5.551500   19.159508    ( 0.0000,  0.0000,  0.0000)
  39 Cu     2.893960    3.701000   17.851007    ( 0.0000,  0.0000,  0.0000)
  40 Cu     2.893960    3.701000   20.468009    ( 0.0000,  0.0000,  0.0000)
  41 Cu     1.585459    5.551500   21.776510    ( 0.0000,  0.0000,  0.0000)
  42 Cu     4.202462    5.551500   21.776510    ( 0.0000,  0.0000,  0.0000)
  43 Cu     0.276958    3.701000   20.468009    ( 0.0000,  0.0000,  0.0000)
  44 Cu     0.276958    3.701000   23.085011    ( 0.0000,  0.0000,  0.0000)
  45 Cu     4.202462    5.551500   24.393512    ( 0.0000,  0.0000,  0.0000)
  46 Cu     1.585459    5.551500   24.393512    ( 0.0000,  0.0000,  0.0000)
  47 Cu     2.893960    3.701000   23.085011    ( 0.0000,  0.0000,  0.0000)
  48 Cu     6.819464    1.850500   11.308501    ( 0.0000,  0.0000,  0.0000)
  49 Cu     5.510963    0.000000   10.000000    ( 0.0000,  0.0000,  0.0000)
  50 Cu     5.510963    0.000000   12.617002    ( 0.0000,  0.0000,  0.0000)
  51 Cu     6.819464    1.850500   13.925503    ( 0.0000,  0.0000,  0.0000)
  52 Cu     6.819464    1.850500   16.542505    ( 0.0000,  0.0000,  0.0000)
  53 Cu     5.510963    0.000000   15.234004    ( 0.0000,  0.0000,  0.0000)
  54 Cu     5.510963    0.000000   17.851007    ( 0.0000,  0.0000,  0.0000)
  55 Cu     6.819464    1.850500   19.159508    ( 0.0000,  0.0000,  0.0000)
  56 Cu     6.819464    1.850500   21.776510    ( 0.0000,  0.0000,  0.0000)
  57 Cu     5.510963    0.000000   20.468009    ( 0.0000,  0.0000,  0.0000)
  58 Cu     5.510963    0.000000   23.085011    ( 0.0000,  0.0000,  0.0000)
  59 Cu     6.819464    1.850500   24.393512    ( 0.0000,  0.0000,  0.0000)
  60 Cu     6.819464    5.551500   11.308501    ( 0.0000,  0.0000,  0.0000)
  61 Cu     5.510963    3.701000   10.000000    ( 0.0000,  0.0000,  0.0000)
  62 Cu     5.510963    3.701000   12.617002    ( 0.0000,  0.0000,  0.0000)
  63 Cu     6.819464    5.551500   13.925503    ( 0.0000,  0.0000,  0.0000)
  64 Cu     6.819464    5.551500   16.542505    ( 0.0000,  0.0000,  0.0000)
  65 Cu     5.510963    3.701000   15.234004    ( 0.0000,  0.0000,  0.0000)
  66 Cu     5.510963    3.701000   17.851007    ( 0.0000,  0.0000,  0.0000)
  67 Cu     6.819464    5.551500   19.159508    ( 0.0000,  0.0000,  0.0000)
  68 Cu     6.819464    5.551500   21.776510    ( 0.0000,  0.0000,  0.0000)
  69 Cu     5.510963    3.701000   20.468009    ( 0.0000,  0.0000,  0.0000)
  70 Cu     5.510963    3.701000   23.085011    ( 0.0000,  0.0000,  0.0000)
  71 Cu     6.819464    5.551500   24.393512    ( 0.0000,  0.0000,  0.0000)

Unit cell:
           periodic     x           y           z      points  spacing
  1. axis:    yes    7.851007    0.000000    0.000000    45     0.1745
  2. axis:    yes    0.000000    7.402000    0.000000    42     0.1762
  3. axis:    yes    0.000000    0.000000   34.393512   196     0.1755

  Lengths:   7.851007   7.402000  34.393512
  Angles:   90.000000  90.000000  90.000000

Effective grid spacing dv^(1/3) = 0.1754

                     log10-error:    total        iterations:
           time      wfs    density  energy       fermi  poisson
iter:   1  03:20:56  +0.11   +inf  -5488.927712    4
iter:   2  03:21:05  -1.64  -1.21  -5474.593917    36
iter:   3  03:21:14  -0.99  -1.28  -5470.773010    36
iter:   4  03:21:23  -1.29  -1.43  -5454.510674    34
iter:   5  03:21:31  -2.41  -1.65  -5454.240249    3
iter:   6  03:21:40  -1.64  -1.67  -5468.698107    31
iter:   7  03:21:49  -2.11  -1.66  -5453.460999    3
iter:   8  03:21:58  -2.87  -1.96  -5453.448543    4
iter:   9  03:22:07  -2.86  -1.95  -5451.879502    4
iter:  10  03:22:15  -3.05  -2.09  -5452.720945    2
iter:  11  03:22:24  -3.76  -2.10  -5452.647461    3
iter:  12  03:22:33  -2.73  -2.15  -5451.378772    4
iter:  13  03:22:42  -2.85  -2.43  -5451.217207    3
iter:  14  03:22:51  -2.98  -2.52  -5451.108590    4
iter:  15  03:23:00  -3.83  -2.76  -5451.032029    4
iter:  16  03:23:08  -4.89  -3.04  -5451.013004    3
iter:  17  03:23:17  -4.76  -3.24  -5451.009332    3
iter:  18  03:23:26  -4.43  -3.29  -5451.015048    3
iter:  19  03:23:35  -5.54  -3.21  -5451.016650    3
iter:  20  03:23:44  -5.32  -3.19  -5451.010804    3
iter:  21  03:23:52  -5.33  -3.31  -5451.006826    3
iter:  22  03:24:01  -5.65  -3.52  -5451.008891    2
iter:  23  03:24:10  -5.92  -3.42  -5451.006758    2
iter:  24  03:24:19  -6.12  -3.58  -5451.006554    3
iter:  25  03:24:28  -5.49  -3.66  -5451.005898    3
iter:  26  03:24:36  -6.33  -3.88  -5451.005565    2
iter:  27  03:24:45  -6.58  -4.28  -5451.005506    2
iter:  28  03:24:54  -6.88  -4.33  -5451.005499    2
iter:  29  03:25:03  -7.73  -4.51  -5451.005498    2

Converged after 29 iterations.

Dipole moment: (-70.386639, -0.000000, 0.000795) |e|*Ang

Energy contributions relative to reference atoms: (reference = -3241544.532561)

Kinetic:       +488.274023
Potential:     -551.473394
External:        +0.000000
XC:            -5386.432046
Entropy (-ST):   -0.727299
Local:           -1.010431
Free energy:   -5451.369147
Extrapolated:  -5451.005498

Fermi level: 0.74201

Showing only first 2 kpts
 Kpt  Band  Eigenvalues  Occupancy
  0   394      0.36849    0.48834
  0   395      0.43481    0.47786
  0   396      0.53250    0.44521
  0   397      0.57678    0.41960

  1   394      0.63858    0.36887
  1   395      0.65092    0.35659
  1   396      0.71212    0.28709
  1   397      0.87196    0.10712

No gap

Forces in eV/Ang:
  0 Cu    0.00047    0.00000    0.26161
  1 Cu    0.00020    0.00000   -0.28535
  2 Cu    0.00020   -0.00000   -0.28535
  3 Cu    0.00047    0.00000    0.26161
  4 Cu    0.00034    0.00000   -0.01092
  5 Cu    0.00011    0.00000   -0.02304
  6 Cu    0.00011    0.00000   -0.02304
  7 Cu    0.00034    0.00000   -0.01092
  8 Cu    0.00024    0.00000    0.01315
  9 Cu    0.00004   -0.00000   -0.01582
 10 Cu    0.00004   -0.00000   -0.01582
 11 Cu    0.00024    0.00000    0.01315
 12 Cu    0.00022    0.00000    0.01612
 13 Cu    0.00007   -0.00000   -0.01233
 14 Cu    0.00007    0.00000   -0.01233
 15 Cu    0.00022    0.00000    0.01612
 16 Cu    0.00028    0.00000    0.02161
 17 Cu    0.00016   -0.00000    0.01257
 18 Cu    0.00016    0.00000    0.01257
 19 Cu    0.00028    0.00000    0.02161
 20 Cu    0.00038    0.00000    0.28289
 21 Cu    0.00025    0.00000   -0.26282
 22 Cu    0.00025   -0.00000   -0.26282
 23 Cu    0.00038    0.00000    0.28289
 24 Cu    0.00047    0.00000    0.26161
 25 Cu    0.00020   -0.00000   -0.28535
 26 Cu    0.00020    0.00000   -0.28535
 27 Cu    0.00047    0.00000    0.26161
 28 Cu    0.00034    0.00000   -0.01091
 29 Cu    0.00011   -0.00000   -0.02304
 30 Cu    0.00011   -0.00000   -0.02304
 31 Cu    0.00034    0.00000   -0.01092
 32 Cu    0.00024    0.00000    0.01315
 33 Cu    0.00004    0.00000   -0.01582
 34 Cu    0.00004    0.00000   -0.01582
 35 Cu    0.00024    0.00000    0.01315
 36 Cu    0.00022    0.00000    0.01612
 37 Cu    0.00007    0.00000   -0.01233
 38 Cu    0.00007   -0.00000   -0.01233
 39 Cu    0.00022    0.00000    0.01612
 40 Cu    0.00028    0.00000    0.02161
 41 Cu    0.00016    0.00000    0.01257
 42 Cu    0.00016   -0.00000    0.01257
 43 Cu    0.00028    0.00000    0.02161
 44 Cu    0.00038    0.00000    0.28289
 45 Cu    0.00025   -0.00000   -0.26282
 46 Cu    0.00025    0.00000   -0.26282
 47 Cu    0.00038    0.00000    0.28289
 48 Cu    0.00020    0.00000   -0.28535
 49 Cu    0.00047    0.00000    0.26161
 50 Cu    0.00034    0.00000   -0.01092
 51 Cu    0.00011   -0.00000   -0.02304
 52 Cu    0.00004   -0.00000   -0.01582
 53 Cu    0.00024    0.00000    0.01315
 54 Cu    0.00022    0.00000    0.01612
 55 Cu    0.00007    0.00000   -0.01233
 56 Cu    0.00016   -0.00000    0.01257
 57 Cu    0.00028    0.00000    0.02161
 58 Cu    0.00038    0.00000    0.28289
 59 Cu    0.00025   -0.00000   -0.26282
 60 Cu    0.00020   -0.00000   -0.28535
 61 Cu    0.00047    0.00000    0.26161
 62 Cu    0.00034    0.00000   -0.01092
 63 Cu    0.00011    0.00000   -0.02304
 64 Cu    0.00004    0.00000   -0.01582
 65 Cu    0.00024    0.00000    0.01315
 66 Cu    0.00022    0.00000    0.01612
 67 Cu    0.00007   -0.00000   -0.01233
 68 Cu    0.00016    0.00000    0.01257
 69 Cu    0.00028    0.00000    0.02161
 70 Cu    0.00038    0.00000    0.28289
 71 Cu    0.00025    0.00000   -0.26282

System changes: positions

[...]

Density initialized from wave functions
 |    |  Cu    Cu    Cu  |
 |  CuCu   CCu   CuCu    |
 |    |  Cu    Cu    Cu  |
 |Cu  CuCu  CuCu   Cu    |
 |  Cu|  CuCu  CuCu  Cu  |
 |Cu  CuCu  CuCu   Cu    |
 |  Cu|  CuCu  CuCu  Cu  |
 |Cu  | Cu    Cu         |
 |  CuCu CuCCu CuCuCuCu  |
 |Cu  | Cu    Cu         |
 |  CuCu CuCCu CuCuCuCu  |
 |CuCuCuCu CCuCu CuCu    |
 |Cu  | Cu    Cu         |

[...]

Density initialized from wave functions
 |    |  Cu    Cu    Cu  |
 |  CuCu   CCu   CuCu    |
 |    |  Cu    Cu    Cu  |
 |CuCuCuCu CCuCu CuCu    |
 |    |  Cu    Cu    Cu  |
 |Cu  CuCu  CuCu   Cu    |
 |  Cu|  CuCu  CuCu  Cu  |
 |Cu  | Cu    Cu         |
 |  CuCu CuCCu CuCuCuCu  |
 |Cu  | Cu    Cu         |
 |  CuCu   CCu   CuCu    |
 |    |  Cu    Cu    Cu  |
 |CuCuCuCu CCuCu CuCu    |
 |Cu  | Cu    Cu         |

[...]

System changes: positions

Initializing position-dependent things.

Density initialized from wave functions
 |    |  Cu    Cu    Cu  |
 |  CuCu   CCu   CuCu    |
 |    |  Cu    Cu    Cu  |
 |CuCuCuCu CCuCu CuCu    |
 |    |  Cu    Cu    Cu  |
 |Cu  CuCu  CuCu   Cu    |
 |  Cu|  CuCu  CuCu  Cu  |
 |Cu  | Cu    Cu         |
 |  CuCu CuCCu CuCuCuCu  |
 |Cu  | Cu    Cu         |
 |  CuCu   CCu   CuCu    |
 |    |  Cu    Cu    Cu  |
 |CuCuCuCu CCuCu CuCu    |
 |Cu  | Cu    Cu         |

Positions:
   0 Cu     2.894077    0.000000   10.053807    ( 0.0000,  0.0000,  0.0000)
   1 Cu     1.585525    1.850500   11.252166    ( 0.0000,  0.0000,  0.0000)
   2 Cu     4.202527    1.850500   11.252166    ( 0.0000,  0.0000,  0.0000)
   3 Cu     0.277075    0.000000   10.053807    ( 0.0000,  0.0000,  0.0000)
   4 Cu     0.277051    0.000000   12.616703    ( 0.0000,  0.0000,  0.0000)
   5 Cu     4.202503    1.850500   13.913769    ( 0.0000,  0.0000,  0.0000)
   6 Cu     1.585500    1.850500   13.913769    ( 0.0000,  0.0000,  0.0000)
   7 Cu     2.894053    0.000000   12.616703    ( 0.0000,  0.0000,  0.0000)
   8 Cu     2.894026    0.000000   15.235082    ( 0.0000,  0.0000,  0.0000)
   9 Cu     1.585483    1.850500   16.540458    ( 0.0000,  0.0000,  0.0000)
  10 Cu     4.202485    1.850500   16.540458    ( 0.0000,  0.0000,  0.0000)
  11 Cu     0.277024    0.000000   15.235082    ( 0.0000,  0.0000,  0.0000)
  12 Cu     0.277015    0.000000   17.853030    ( 0.0000,  0.0000,  0.0000)
  13 Cu     4.202493    1.850500   19.158454    ( 0.0000,  0.0000,  0.0000)
  14 Cu     1.585491    1.850500   19.158454    ( 0.0000,  0.0000,  0.0000)
  15 Cu     2.894017    0.000000   17.853030    ( 0.0000,  0.0000,  0.0000)
  16 Cu     2.894035    0.000000   20.479630    ( 0.0000,  0.0000,  0.0000)
  17 Cu     1.585516    1.850500   21.776738    ( 0.0000,  0.0000,  0.0000)
  18 Cu     4.202518    1.850500   21.776738    ( 0.0000,  0.0000,  0.0000)
  19 Cu     0.277033    0.000000   20.479630    ( 0.0000,  0.0000,  0.0000)
  20 Cu     0.277055    0.000000   23.141101    ( 0.0000,  0.0000,  0.0000)
  21 Cu     4.202526    1.850500   24.339522    ( 0.0000,  0.0000,  0.0000)
  22 Cu     1.585524    1.850500   24.339522    ( 0.0000,  0.0000,  0.0000)
  23 Cu     2.894058    0.000000   23.141101    ( 0.0000,  0.0000,  0.0000)
  24 Cu     2.894077    3.701000   10.053807    ( 0.0000,  0.0000,  0.0000)
  25 Cu     1.585525    5.551500   11.252166    ( 0.0000,  0.0000,  0.0000)
  26 Cu     4.202527    5.551500   11.252166    ( 0.0000,  0.0000,  0.0000)
  27 Cu     0.277075    3.701000   10.053807    ( 0.0000,  0.0000,  0.0000)
  28 Cu     0.277051    3.701000   12.616703    ( 0.0000,  0.0000,  0.0000)
  29 Cu     4.202503    5.551500   13.913769    ( 0.0000,  0.0000,  0.0000)
  30 Cu     1.585500    5.551500   13.913769    ( 0.0000,  0.0000,  0.0000)
  31 Cu     2.894053    3.701000   12.616703    ( 0.0000,  0.0000,  0.0000)
  32 Cu     2.894026    3.701000   15.235082    ( 0.0000,  0.0000,  0.0000)
  33 Cu     1.585483    5.551500   16.540458    ( 0.0000,  0.0000,  0.0000)
  34 Cu     4.202485    5.551500   16.540458    ( 0.0000,  0.0000,  0.0000)
  35 Cu     0.277024    3.701000   15.235082    ( 0.0000,  0.0000,  0.0000)
  36 Cu     0.277015    3.701000   17.853030    ( 0.0000,  0.0000,  0.0000)
  37 Cu     4.202493    5.551500   19.158454    ( 0.0000,  0.0000,  0.0000)
  38 Cu     1.585491    5.551500   19.158454    ( 0.0000,  0.0000,  0.0000)
  39 Cu     2.894017    3.701000   17.853030    ( 0.0000,  0.0000,  0.0000)
  40 Cu     2.894035    3.701000   20.479630    ( 0.0000,  0.0000,  0.0000)
  41 Cu     1.585516    5.551500   21.776738    ( 0.0000,  0.0000,  0.0000)
  42 Cu     4.202518    5.551500   21.776738    ( 0.0000,  0.0000,  0.0000)
  43 Cu     0.277033    3.701000   20.479630    ( 0.0000,  0.0000,  0.0000)
  44 Cu     0.277055    3.701000   23.141101    ( 0.0000,  0.0000,  0.0000)
  45 Cu     4.202526    5.551500   24.339522    ( 0.0000,  0.0000,  0.0000)
  46 Cu     1.585524    5.551500   24.339522    ( 0.0000,  0.0000,  0.0000)
  47 Cu     2.894057    3.701000   23.141101    ( 0.0000,  0.0000,  0.0000)
  48 Cu     6.819529    1.850500   11.252166    ( 0.0000,  0.0000,  0.0000)
  49 Cu     5.511079    0.000000   10.053807    ( 0.0000,  0.0000,  0.0000)
  50 Cu     5.511056    0.000000   12.616703    ( 0.0000,  0.0000,  0.0000)
  51 Cu     6.819505    1.850500   13.913769    ( 0.0000,  0.0000,  0.0000)
  52 Cu     6.819487    1.850500   16.540458    ( 0.0000,  0.0000,  0.0000)
  53 Cu     5.511028    0.000000   15.235082    ( 0.0000,  0.0000,  0.0000)
  54 Cu     5.511019    0.000000   17.853030    ( 0.0000,  0.0000,  0.0000)
  55 Cu     6.819496    1.850500   19.158454    ( 0.0000,  0.0000,  0.0000)
  56 Cu     6.819521    1.850500   21.776738    ( 0.0000,  0.0000,  0.0000)
  57 Cu     5.511038    0.000000   20.479630    ( 0.0000,  0.0000,  0.0000)
  58 Cu     5.511060    0.000000   23.141101    ( 0.0000,  0.0000,  0.0000)
  59 Cu     6.819528    1.850500   24.339522    ( 0.0000,  0.0000,  0.0000)
  60 Cu     6.819529    5.551500   11.252166    ( 0.0000,  0.0000,  0.0000)
  61 Cu     5.511079    3.701000   10.053807    ( 0.0000,  0.0000,  0.0000)
  62 Cu     5.511055    3.701000   12.616703    ( 0.0000,  0.0000,  0.0000)
  63 Cu     6.819505    5.551500   13.913769    ( 0.0000,  0.0000,  0.0000)
  64 Cu     6.819487    5.551500   16.540458    ( 0.0000,  0.0000,  0.0000)
  65 Cu     5.511028    3.701000   15.235082    ( 0.0000,  0.0000,  0.0000)
  66 Cu     5.511019    3.701000   17.853030    ( 0.0000,  0.0000,  0.0000)
  67 Cu     6.819496    5.551500   19.158454    ( 0.0000,  0.0000,  0.0000)
  68 Cu     6.819521    5.551500   21.776738    ( 0.0000,  0.0000,  0.0000)
  69 Cu     5.511038    3.701000   20.479630    ( 0.0000,  0.0000,  0.0000)
  70 Cu     5.511060    3.701000   23.141101    ( 0.0000,  0.0000,  0.0000)
  71 Cu     6.819528    5.551500   24.339522    ( 0.0000,  0.0000,  0.0000)

Unit cell:
           periodic     x           y           z      points  spacing
  1. axis:    yes    7.851007    0.000000    0.000000    45     0.1745
  2. axis:    yes    0.000000    7.402000    0.000000    42     0.1762
  3. axis:    yes    0.000000    0.000000   34.393512   196     0.1755

  Lengths:   7.851007   7.402000  34.393512
  Angles:   90.000000  90.000000  90.000000

Effective grid spacing dv^(1/3) = 0.1754

                     log10-error:    total        iterations:
           time      wfs    density  energy       fermi  poisson
iter:   1  03:30:14  -3.26   +inf  -5451.326739    3
iter:   2  03:30:23  -3.66  -2.75  -5451.237537    4
iter:   3  03:30:32  -4.53  -2.98  -5451.206109    3
iter:   4  03:30:41  -4.41  -3.18  -5451.235243    3
iter:   5  03:30:50  -4.65  -2.98  -5451.195896    3
iter:   6  03:30:59  -5.33  -3.69  -5451.194623    3
iter:   7  03:31:07  -5.54  -3.96  -5451.194904    2
iter:   8  03:31:16  -6.05  -4.05  -5451.194518    2
iter:   9  03:31:25  -5.89  -4.22  -5451.194538    2
iter:  10  03:31:34  -7.18  -4.47  -5451.194474    2
iter:  11  03:31:43  -6.45  -4.53  -5451.194450    2
iter:  12  03:31:52  -7.35  -4.70  -5451.194454    2
iter:  13  03:32:00  -7.77  -4.85  -5451.194452    2

Converged after 13 iterations.

Dipole moment: (-70.408084, -0.000000, 0.000543) |e|*Ang

Energy contributions relative to reference atoms: (reference = -3241544.532561)

Kinetic:       +491.371858
Potential:     -553.976690
External:        +0.000000
XC:            -5387.263026
Entropy (-ST):   -0.720053
Local:           -0.966567
Free energy:   -5451.554479
Extrapolated:  -5451.194452

Fermi level: 0.72440

Showing only first 2 kpts
 Kpt  Band  Eigenvalues  Occupancy
  0   394      0.35097    0.48833
  0   395      0.42080    0.47709
  0   396      0.50045    0.45187
  0   397      0.51917    0.44309

  1   394      0.60815    0.38090
  1   395      0.64328    0.34619
  1   396      0.72969    0.24339
  1   397      0.85933    0.10299

No gap

Forces in eV/Ang:
  0 Cu    0.00021    0.00000    0.00359
  1 Cu    0.00024   -0.00000    0.01142
  2 Cu    0.00024   -0.00000    0.01141
  3 Cu    0.00021    0.00000    0.00359
  4 Cu    0.00024    0.00000   -0.00372
  5 Cu    0.00017    0.00000   -0.01810
  6 Cu    0.00017   -0.00000   -0.01810
  7 Cu    0.00024    0.00000   -0.00372
  8 Cu    0.00015    0.00000   -0.02055
  9 Cu    0.00015   -0.00000   -0.01008
 10 Cu    0.00015    0.00000   -0.01008
 11 Cu    0.00016    0.00000   -0.02055
 12 Cu    0.00013    0.00000    0.00934
 13 Cu    0.00017    0.00000    0.01930
 14 Cu    0.00017    0.00000    0.01930
 15 Cu    0.00013    0.00000    0.00934
 16 Cu    0.00015    0.00000    0.01808
 17 Cu    0.00025    0.00000    0.00312
 18 Cu    0.00025   -0.00000    0.00312
 19 Cu    0.00015    0.00000    0.01808
 20 Cu    0.00019    0.00000   -0.01090
 21 Cu    0.00014   -0.00000   -0.00404
 22 Cu    0.00014   -0.00000   -0.00404
 23 Cu    0.00019    0.00000   -0.01090
 24 Cu    0.00021    0.00000    0.00359
 25 Cu    0.00024    0.00000    0.01142
 26 Cu    0.00024    0.00000    0.01141
 27 Cu    0.00021    0.00000    0.00359
 28 Cu    0.00024    0.00000   -0.00372
 29 Cu    0.00017   -0.00000   -0.01810
 30 Cu    0.00017    0.00000   -0.01810
 31 Cu    0.00024    0.00000   -0.00372
 32 Cu    0.00016    0.00000   -0.02055
 33 Cu    0.00015    0.00000   -0.01008
 34 Cu    0.00015   -0.00000   -0.01008
 35 Cu    0.00016    0.00000   -0.02055
 36 Cu    0.00013    0.00000    0.00934
 37 Cu    0.00017   -0.00000    0.01930
 38 Cu    0.00017   -0.00000    0.01930
 39 Cu    0.00013    0.00000    0.00934
 40 Cu    0.00015    0.00000    0.01808
 41 Cu    0.00025   -0.00000    0.00312
 42 Cu    0.00025    0.00000    0.00312
 43 Cu    0.00015    0.00000    0.01808
 44 Cu    0.00019    0.00000   -0.01090
 45 Cu    0.00014    0.00000   -0.00404
 46 Cu    0.00014    0.00000   -0.00404
 47 Cu    0.00019    0.00000   -0.01090
 48 Cu    0.00024   -0.00000    0.01142
 49 Cu    0.00021    0.00000    0.00359
 50 Cu    0.00024    0.00000   -0.00372
 51 Cu    0.00017    0.00000   -0.01810
 52 Cu    0.00015   -0.00000   -0.01008
 53 Cu    0.00016    0.00000   -0.02055
 54 Cu    0.00013    0.00000    0.00934
 55 Cu    0.00017    0.00000    0.01930
 56 Cu    0.00025   -0.00000    0.00312
 57 Cu    0.00015    0.00000    0.01808
 58 Cu    0.00019    0.00000   -0.01090
 59 Cu    0.00014    0.00000   -0.00404
 60 Cu    0.00024    0.00000    0.01142
 61 Cu    0.00021    0.00000    0.00359
 62 Cu    0.00024    0.00000   -0.00372
 63 Cu    0.00017   -0.00000   -0.01810
 64 Cu    0.00015    0.00000   -0.01008
 65 Cu    0.00016    0.00000   -0.02055
 66 Cu    0.00013    0.00000    0.00934
 67 Cu    0.00017   -0.00000    0.01930
 68 Cu    0.00025    0.00000    0.00312
 69 Cu    0.00015    0.00000    0.01808
 70 Cu    0.00019    0.00000   -0.01090
 71 Cu    0.00014   -0.00000   -0.00404

Date: Tue Feb 15 03:32:03 2022