User:   thorkong@node030.cluster
Date:   Fri Oct 14 16:04:46 2022
Arch:   x86_64
Pid:    823
Python: 3.10.5
gpaw:   /groups/kemi/thorkong/miniconda3/envs/gpaw22/lib/python3.10/site-packages/gpaw
_gpaw:  /groups/kemi/thorkong/miniconda3/envs/gpaw22/lib/python3.10/site-packages/
        _gpaw.cpython-310-x86_64-linux-gnu.so
ase:    /groups/kemi/thorkong/miniconda3/envs/gpaw22/lib/python3.10/site-packages/ase (version 3.22.1)
numpy:  /groups/kemi/thorkong/miniconda3/envs/gpaw22/lib/python3.10/site-packages/numpy (version 1.23.0)
scipy:  /groups/kemi/thorkong/miniconda3/envs/gpaw22/lib/python3.10/site-packages/scipy (version 1.8.1)
units:  Angstrom and eV
cores: 32
OpenMP: True
OMP_NUM_THREADS: 1

Input parameters:
  basis: dzp
  kpts: [4 4 1]
  mode: {ecut: 600.0,
         name: pw}
  xc: BEEF-vdW

System changes: positions, numbers, cell, pbc, initial_charges, initial_magmoms

Initialize ...

Cu-setup:
  name: Copper
  id: f1c4d45d90492f1bbfdcb091e8418fdf
  Z: 29.0
  valence: 11
  core: 18
  charge: 0.0
  file: /groups/kemi/thorkong/miniconda3/envs/gpaw22/share/gpaw/Cu.PBE.gz
  compensation charges: gauss, rc=0.33, lmax=2
  cutoffs: 2.06(filt), 2.43(core),
  valence states:
                energy  radius
    4s(1.00)    -4.609   1.164
    4p(0.00)    -0.698   1.164
    3d(10.00)    -5.039   1.058
    *s          22.603   1.164
    *p          26.513   1.164
    *d          22.172   1.058

  LCAO basis set for Cu:
    Name: dzp
    File: /groups/kemi/thorkong/miniconda3/envs/gpaw22/share/gpaw/Cu.dzp.basis.gz
    Number of radial functions: 5
    Number of spherical harmonics: 15
      l=0, rc=8.9688 Bohr: 4s-sz confined orbital
      l=2, rc=5.1719 Bohr: 3d-sz confined orbital
      l=0, rc=5.3281 Bohr: 4s-dz split-valence wave
      l=2, rc=3.1406 Bohr: 3d-dz split-valence wave
      l=1, rc=8.9688 Bohr: p-type Gaussian polarization

Cl-setup:
  name: Chlorine
  id: 726897f06f34e53cf8e33b5885a02604
  Z: 17.0
  valence: 7
  core: 10
  charge: 0.0
  file: /groups/kemi/thorkong/miniconda3/envs/gpaw22/share/gpaw/Cl.PBE.gz
  compensation charges: gauss, rc=0.25, lmax=2
  cutoffs: 1.40(filt), 1.49(core),
  valence states:
                energy  radius
    3s(2.00)   -20.689   0.794
    3p(5.00)    -8.594   0.794
    *s           6.523   0.794
    *p          18.617   0.794
    *d           0.000   0.794

  LCAO basis set for Cl:
    Name: dzp
    File: /groups/kemi/thorkong/miniconda3/envs/gpaw22/share/gpaw/Cl.dzp.basis.gz
    Number of radial functions: 5
    Number of spherical harmonics: 13
      l=0, rc=5.1719 Bohr: 3s-sz confined orbital
      l=1, rc=6.2656 Bohr: 3p-sz confined orbital
      l=0, rc=2.8281 Bohr: 3s-dz split-valence wave
      l=1, rc=3.5156 Bohr: 3p-dz split-valence wave
      l=2, rc=6.2656 Bohr: d-type Gaussian polarization

Reference energy: -3367094.026518

Spin-paired calculation

Convergence criteria:
 Maximum [total energy] change in last 3 cyles: 0.0005 eV / electron
 Maximum integral of absolute [dens]ity change: 0.0001 electrons / valence electron
 Maximum integral of absolute [eigenst]ate change: 4e-08 eV^2 / valence electron
 Maximum number of scf [iter]ations: 333
 (Square brackets indicate name in SCF output, whereas a 'c' in
 the SCF output indicates the quantity has converged.)

Symmetries present (total): 1

  ( 1  0  0)
  ( 0  1  0)
  ( 0  0  1)

16 k-points: 4 x 4 x 1 Monkhorst-Pack grid
8 k-points in the irreducible part of the Brillouin zone
       k-points in crystal coordinates                weights
   0:     0.12500000   -0.37500000    0.00000000          2/16
   1:     0.12500000   -0.12500000    0.00000000          2/16
   2:     0.12500000    0.12500000    0.00000000          2/16
   3:     0.12500000    0.37500000    0.00000000          2/16
   4:     0.37500000   -0.37500000    0.00000000          2/16
   5:     0.37500000   -0.12500000    0.00000000          2/16
   6:     0.37500000    0.12500000    0.00000000          2/16
   7:     0.37500000    0.37500000    0.00000000          2/16

Wave functions: Plane wave expansion
  Cutoff energy: 600.000 eV
  Number of coefficients (min, max): 66642, 66743
  Pulay-stress correction: 0.000000 eV/Ang^3 (de/decut=0.000000)
  Using FFTW library
  ScaLapack parameters: grid=2x2, blocksize=64
  Wavefunction extrapolation:
    Improved wavefunction reuse through dual PAW basis

Occupation numbers: Fermi-Dirac: width=0.1000 eV

Eigensolver
   Davidson(niter=2)

Densities:
  Coarse grid: 45*42*196 grid
  Fine grid: 90*84*392 grid
  Total Charge: 0.000000

Density mixing:
  Method: separate
  Backend: pulay
  Linear mixing parameter: 0.05
  Mixing with 5 old densities
  Damping of long wave oscillations: 50

Hamiltonian:
  XC and Coulomb potentials evaluated on a 90*84*392 grid
  Using the BEEF-vdW Exchange-Correlation functional
  External potential:
    NoExternalPotential

XC parameters: BEEF-vdW with 2 nearest neighbor stencil

Total number of cores used: 32
Parallelization over k-points: 8
Domain decomposition: 1 x 1 x 4
                      2 x 2 x 8 (xc only)

Number of atoms: 82
Number of atomic orbitals: 1210
Number of bands in calculation: 522
Number of valence electrons: 862
Bands to converge: occupied

... initialized

Initializing position-dependent things.

Density initialized from atomic densities
Creating initial wave functions:
  522 bands from LCAO basis set

 |    |     Cl    Cl     |
 |Cl  |  Cl  CuCCl   Cu  |
 |  CuCu   CCu   CuCu    |
 |    |  Cu    Cu    Cu  |
 |Cu  Cu    CuCu   Cu    |
 |  Cu|  CCu   CuCu  Cu  |
 |Cu  CuCu  CuCu   Cu    |
 |  Cu|  CuCuCuCuCu  Cu  |
 |Cu  | Cu    Cu         |
 |  CuCu CuCCu CuCuCuCu  |
 |Cu  |       Cu         |
 |  CuCu CCuCu CuCuCuCu  |
 |    |Cu    Cu    Cu    |
 |CuCuCuCuCuCuCuCCuCu    |
 |    |Cl     Cl     Cl  |

Positions:
   0 Cu     2.893249   -0.009013   10.079935    ( 0.0000,  0.0000,  0.0000)
   1 Cu     1.591035    1.857611   11.262661    ( 0.0000,  0.0000,  0.0000)
   2 Cu     4.201834    1.841809   11.295676    ( 0.0000,  0.0000,  0.0000)
   3 Cu     0.277666   -0.009469   10.084997    ( 0.0000,  0.0000,  0.0000)
   4 Cu     0.277849    0.003618   12.626767    ( 0.0000,  0.0000,  0.0000)
   5 Cu     4.202668    1.862513   13.923708    ( 0.0000,  0.0000,  0.0000)
   6 Cu     1.586463    1.852775   13.921192    ( 0.0000,  0.0000,  0.0000)
   7 Cu     2.889400    0.003545   12.629227    ( 0.0000,  0.0000,  0.0000)
   8 Cu     2.895466   -0.000271   15.229461    ( 0.0000,  0.0000,  0.0000)
   9 Cu     1.588247    1.851385   16.545856    ( 0.0000,  0.0000,  0.0000)
  10 Cu     4.201591    1.852496   16.545727    ( 0.0000,  0.0000,  0.0000)
  11 Cu     0.277809    0.001734   15.236454    ( 0.0000,  0.0000,  0.0000)
  12 Cu     0.278211    0.000883   17.850829    ( 0.0000,  0.0000,  0.0000)
  13 Cu     4.204728    1.850775   19.171325    ( 0.0000,  0.0000,  0.0000)
  14 Cu     1.584458    1.852521   19.171085    ( 0.0000,  0.0000,  0.0000)
  15 Cu     2.894601    0.002325   17.849783    ( 0.0000,  0.0000,  0.0000)
  16 Cu     2.894236    0.012687   20.468701    ( 0.0000,  0.0000,  0.0000)
  17 Cu     1.584204    1.855644   21.820509    ( 0.0000,  0.0000,  0.0000)
  18 Cu     4.205662    1.855442   21.821840    ( 0.0000,  0.0000,  0.0000)
  19 Cu     0.277320    0.003097   20.469516    ( 0.0000,  0.0000,  0.0000)
  20 Cu     0.282256    0.008318   23.110120    ( 0.0000,  0.0000,  0.0000)
  21 Cu     4.232873    1.841925   24.430560    ( 0.0000,  0.0000,  0.0000)
  22 Cu     1.555398    1.844008   24.424642    ( 0.0000,  0.0000,  0.0000)
  23 Cu     2.895568   -0.008221   23.079835    ( 0.0000,  0.0000,  0.0000)
  24 Cu     2.864475    3.710782    9.962758    ( 0.0000,  0.0000,  0.0000)
  25 Cu     1.591976    5.541691   11.280182    ( 0.0000,  0.0000,  0.0000)
  26 Cu     4.202041    5.558211   11.310184    ( 0.0000,  0.0000,  0.0000)
  27 Cu     0.277822    3.707697   10.093271    ( 0.0000,  0.0000,  0.0000)
  28 Cu     0.277595    3.695861   12.630222    ( 0.0000,  0.0000,  0.0000)
  29 Cu     4.203472    5.539712   13.923294    ( 0.0000,  0.0000,  0.0000)
  30 Cu     1.585302    5.549330   13.921336    ( 0.0000,  0.0000,  0.0000)
  31 Cu     2.891979    3.696489   12.570906    ( 0.0000,  0.0000,  0.0000)
  32 Cu     2.893008    3.701406   15.220839    ( 0.0000,  0.0000,  0.0000)
  33 Cu     1.586757    5.551594   16.543688    ( 0.0000,  0.0000,  0.0000)
  34 Cu     4.203073    5.549574   16.542388    ( 0.0000,  0.0000,  0.0000)
  35 Cu     0.277652    3.699826   15.228727    ( 0.0000,  0.0000,  0.0000)
  36 Cu     0.278347    3.700871   17.844615    ( 0.0000,  0.0000,  0.0000)
  37 Cu     4.202226    5.552299   19.162667    ( 0.0000,  0.0000,  0.0000)
  38 Cu     1.587282    5.550511   19.162081    ( 0.0000,  0.0000,  0.0000)
  39 Cu     2.896094    3.699332   17.846167    ( 0.0000,  0.0000,  0.0000)
  40 Cu     2.895034    3.689744   20.468648    ( 0.0000,  0.0000,  0.0000)
  41 Cu     1.581145    5.547784   21.761122    ( 0.0000,  0.0000,  0.0000)
  42 Cu     4.208363    5.548067   21.763035    ( 0.0000,  0.0000,  0.0000)
  43 Cu     0.277513    3.699240   20.468279    ( 0.0000,  0.0000,  0.0000)
  44 Cu     0.282403    3.692379   23.126419    ( 0.0000,  0.0000,  0.0000)
  45 Cu     4.204347    5.557399   24.312269    ( 0.0000,  0.0000,  0.0000)
  46 Cu     1.585207    5.556171   24.307688    ( 0.0000,  0.0000,  0.0000)
  47 Cu     2.895682    3.707975   23.099015    ( 0.0000,  0.0000,  0.0000)
  48 Cu     6.815902    1.857266   11.266864    ( 0.0000,  0.0000,  0.0000)
  49 Cu     5.512292   -0.007627   10.084231    ( 0.0000,  0.0000,  0.0000)
  50 Cu     5.516568    0.003856   12.630858    ( 0.0000,  0.0000,  0.0000)
  51 Cu     6.820227    1.852728   13.924166    ( 0.0000,  0.0000,  0.0000)
  52 Cu     6.819210    1.851175   16.547654    ( 0.0000,  0.0000,  0.0000)
  53 Cu     5.510471    0.001413   15.229784    ( 0.0000,  0.0000,  0.0000)
  54 Cu     5.510806    0.000434   17.848219    ( 0.0000,  0.0000,  0.0000)
  55 Cu     6.820027    1.852260   19.163515    ( 0.0000,  0.0000,  0.0000)
  56 Cu     6.820094    1.855667   21.761999    ( 0.0000,  0.0000,  0.0000)
  57 Cu     5.512423    0.002682   20.470960    ( 0.0000,  0.0000,  0.0000)
  58 Cu     5.506106    0.008663   23.111884    ( 0.0000,  0.0000,  0.0000)
  59 Cu     6.819522    1.843288   24.299220    ( 0.0000,  0.0000,  0.0000)
[...]
  67 Cu     6.819828    5.550615   19.155631    ( 0.0000,  0.0000,  0.0000)
  68 Cu     6.819845    5.546713   21.765705    ( 0.0000,  0.0000,  0.0000)
  69 Cu     5.511227    3.699174   20.471342    ( 0.0000,  0.0000,  0.0000)
  70 Cu     5.505644    3.692016   23.130762    ( 0.0000,  0.0000,  0.0000)
  71 Cu     6.819911    5.559715   24.306944    ( 0.0000,  0.0000,  0.0000)
  72 Cl     2.887818    1.790073   26.301630    ( 0.0000,  0.0000,  0.0000)
  73 Cl     4.208862    3.653676    8.090793    ( 0.0000,  0.0000,  0.0000)
  74 Cl     5.387818    5.590073   26.301630    ( 0.0000,  0.0000,  0.0000)
  75 Cl     1.608862   -0.146324    8.090793    ( 0.0000,  0.0000,  0.0000)
  76 Cl     4.308862   -0.046324    8.090793    ( 0.0000,  0.0000,  0.0000)
  77 Cl     2.887818    5.490073   26.301630    ( 0.0000,  0.0000,  0.0000)
[...]
 |    |        CCl       |
 | Cl | Cu   Cu    CuCu  |
 |    |  Cl              |
 |  CuCu   CCu   CuCu    |
 |    |  Cu  CuCu  CuCu  |
 |Cu  Cu    Cu   CuCu    |
 |  Cu|  CuCuCuCu    Cu  |
 |Cu  Cu    Cu     Cu    |
 |  Cu|  CuCu  CuCu  Cu  |
 |Cu  |       Cu         |
 |  CuCu CCuCu CuCuCuCu  |
 |    |            Cu    |
 |Cu  | Cu    Cu         |
 |  CuCu CCuCu CuCuCuCu  |
 |CuCuCuCuCuCu     Cu    |
 |    |         Cu   Cl  |
 |CuCl|  Cu  ClCu        |
 |    |      Cl          |

[...]

Density initialized from wave functions
 |    |             Cl   |
 |    |   Cl             |
 |    |        CCl       |
 | Cl | Cu         CuCu  |
 |    |  Cl              |
 |  CuCu   CCu   CuCu    |
 |    |  Cu  CuCu  CuCu  |
 |Cu  CuCu  Cu   CuCu    |
 |  Cu|  CuCuCuCu    Cu  |
 |Cu  Cu    Cu     Cu    |
 |  Cu|  CuCu  CuCu  Cu  |
 |Cu  |       Cu         |
 |  CuCu CCuCu CuCuCuCu  |
 |    |            Cu    |
 |Cu  | Cu    Cu         |
 |  CuCu CCuCu CuCuCuCu  |
 |CuCuCuCuCuCu  Cu Cu    |
 |    |              Cl  |
 |CuCl|  Cu  ClCu        |
 |    |      Cl          |

[...]

Density initialized from wave functions
 |    |             Cl   |
 |    |   Cl             |
 |    |        CCl       |
 | Cl | Cu         CuCu  |
 |    |  Cl              |
 |  CuCu   CCu   CuCu    |
 |    |  Cu  CuCu  CuCu  |
 |Cu  CuCu  Cu   CuCu    |
 |  Cu|  CuCuCuCu    Cu  |
 |Cu  Cu    Cu     Cu    |
 |  Cu|  CuCu  CuCu  Cu  |
 |Cu  |       Cu         |
 |  CuCu CCuCu CuCuCuCu  |
 |Cu  | Cu    Cu         |
 |  CuCu  CuCu CuCuCuCu  |
 |    |  Cu              |
 |CuCuCuCuCuCuCuCu Cu    |
 |    |              Cl  |
 |CuCl|  Cu  ClCu        |
 |    |      Cl          |

[...]

Density initialized from wave functions
 |    |             Cl   |
 |    |   Cl             |
 | Cl |        CCl       |
 |    | Cu         CuCu  |
 |    |  Cl              |
 |  CuCu   CCu   CuCu    |
 |    |  Cu    Cu  CuCu  |
 |Cu  CuCu  Cu   CuCu    |
 |  Cu|  CuCu  Cu    Cu  |
 |Cu  CuCu  Cu     Cu    |
 |  Cu|  CuCu  CuCu  Cu  |
 |Cu  | Cu    Cu         |
 |  CuCu CCuCu CuCuCuCu  |
 |Cu  | Cu    Cu         |
 |  CuCu  CuCu CuCuCuCu  |
 |    |  Cu              |
 |CuCuCuCuCuCuCuCu Cu    |
 |    |              Cl  |
 |Cul |  Cu  ClCu        |
 |    |      Cl          |

[...]

Density initialized from wave functions
 |    |             Cl   |
 |    |   Cl             |
 | Cl |        CCl       |
 |    |  Cu        CuCu  |
 |    |  Cl              |
 |  CuCu   CCu   CuCu    |
 |    |  Cu    Cu  CuCu  |
 |Cu  CuCu  Cu   CuCu    |
 |  Cu|  CuCu  Cu    Cu  |
 |Cu  CuCu  Cu     Cu    |
 |  Cu|  CuCu  CuCu  Cu  |
 |Cu  | Cu    Cu         |
 |  CuCu CCuCu CuCuCuCu  |
 |Cu  | Cu    Cu         |
 |  CuCu   CCu CuCuCuCu  |
 |    |  Cu              |
 |CuCuCuCuCuCuCuCu Cu    |
 |    |              Cl  |
 |Cul |  Cu  ClCu        |
 |    |      Cl          |

[...]

Density initialized from wave functions
 |    |             Cl   |
 |    |   Cl             |
 | Cl |        CCl       |
 |    |  Cu        CuCu  |
 |    |  Cl              |
 |  CuCu   CCu   CuCu    |
 |    |  Cu    Cu  CuCu  |
 |Cu  CuCu  Cu   CuCu    |
 |  Cu|  CuCu  Cu    Cu  |
 |Cu  CuCu  Cu     Cu    |
 |  Cu|  CuCu  CuCu  Cu  |
 |Cu  | Cu    Cu         |
 |  CuCu CCuCu CuCuCuCu  |
 |Cu  | Cu    Cu         |
 |  CuCu   CCu CuCuCuCu  |
 |    |  Cu              |
 |CuCuCuCuCuCuCuCu Cu    |
 |    |              Cl  |
 |Cul |  Cu  ClCu        |
 |    |     Cl           |

[...]

Density initialized from wave functions
 |    |             Cl   |
 |    |   Cl             |
 | Cl |        CCl       |
 |    |  Cu        CuCu  |
 |    |  Cl              |
 |  CuCu   CCu   CuCu    |
 |    |  Cu    Cu  CuCu  |
 |Cu  CuCu  Cu   CuCu    |
 |  Cu|  CuCu  Cu    Cu  |
 |Cu  CuCu  Cu     Cu    |
 |  Cu|  CuCu  CuCu  Cu  |
 |Cu  | Cu    Cu         |
 |  CuCu CuCCu CuCuCuCu  |
 |Cu  | Cu    Cu         |
 |  CuCu CuCCu CuCuCuCu  |
 |CuCuCuCuCuCuCuCu Cu    |
 |    |              Cl  |
 |Cul |  Cu  ClCu        |
 |    |     Cl           |

[...]

Density initialized from wave functions
 |    |             Cl   |
 |    |   Cl             |
 | Cl |        CCl       |
 |    |  Cu        CuCu  |
 |    |  Cl              |
 |  CuCu   CCu   CuCu    |
 |    |  Cu    Cu  CuCu  |
 |Cu  CuCu  Cu   CuCu    |
 |  Cu|  CuCu  Cu    Cu  |
 |Cu  CuCu  Cu     Cu    |
 |  Cu|  CuCu  CuCu  Cu  |
 |Cu  | Cu    Cu         |
 |  CuCu CuCCu CuCuCuCu  |
 |Cu  | Cu    Cu         |
 |  CuCu CuCCu CuCuCuCu  |
 |CuCuCuCuCuCuCuCu Cu    |
 |    |              Cl  |
 |Cul |  Cu  ClCu        |
 |    |     Cl           |

[...]

Density initialized from wave functions
 |    |             Cl   |
 |    |   Cl             |
 | Cl |        CCl       |
 |    |  Cu        CuCu  |
 |    |  Cl              |
 |  CuCu   CCu   CuCu    |
 |    |  Cu    Cu  CuCu  |
 |Cu  CuCu CCu   CuCu    |
 |  Cu|  Cu    Cu    Cu  |
 |Cu  CuCu  Cu     Cu    |
 |  Cu|  CuCu  CuCu  Cu  |
 |Cu  | Cu    Cu         |
 |  CuCu CuCCu CuCuCuCu  |
 |Cu  | Cu    Cu         |
 |  CuCu CuCCu CuCuCuCu  |
 |CuCuCuCuCuCuCuCu Cu    |
 |    |              Cl  |
 |Cul |  Cu  ClCu        |
 |    |     Cl           |

[...]

Density initialized from wave functions
 |    |             Cl   |
 |    |   Cl             |
 | Cl |        CCl       |
 |    |  Cu        CuCu  |
 |    |  Cl              |
 |  CuCu   CCu   CuCu    |
 |    |  Cu    Cu  CuCu  |
 |Cu  CuCu CCu   CuCu    |
 |  Cu|  Cu    Cu    Cu  |
 |Cu  CuCu  Cu     Cu    |
 |  Cu|  CuCu  CuCu  Cu  |
 |Cu  | Cu    Cu         |
 |  CuCu CuCCu CuCuCuCu  |
 |Cu  | Cu    Cu         |
 |  CuCu CuCCu CuCuCuCu  |
 |CuCuCuCuCuCuCuCu Cu    |
 |    |              Cl  |
 |Cu  |  Cu  ClCu        |
 | Cl |                  |
 |    |     Cl           |

[...]

System changes: positions

Initializing position-dependent things.

Density initialized from wave functions
 |    |             Cl   |
 |    |   Cl             |
 | Cl |        CCl       |
 |    |  Cu        CuCu  |
 |    |  Cl              |
 |  CuCu   CCu   CuCu    |
 |    |  Cu    Cu  CuCu  |
 |Cu  CuCu CCu   CuCu    |
 |  Cu|  Cu    Cu    Cu  |
 |Cu  CuCu  Cu     Cu    |
 |  Cu|  CuCu  CuCu  Cu  |
 |Cu  | Cu    Cu         |
 |  CuCu CuCCu CuCuCuCu  |
 |Cu  | Cu    Cu         |
 |  CuCu CuCCu CuCuCuCu  |
 |CuCuCuCuCuCuCuCu Cu    |
 |    |              Cl  |
 |Cu  |  Cu  ClCu        |
 | Cl |                  |
 |    |     Cl           |

Positions:
   0 Cu     3.058955    0.183656    9.916642    ( 0.0000,  0.0000,  0.0000)
   1 Cu     1.607319    1.891970   11.362743    ( 0.0000,  0.0000,  0.0000)
   2 Cu     4.222487    1.891668   11.349315    ( 0.0000,  0.0000,  0.0000)
   3 Cu     0.345807    0.173215    9.920172    ( 0.0000,  0.0000,  0.0000)
   4 Cu     0.276498    0.013047   12.560120    ( 0.0000,  0.0000,  0.0000)
   5 Cu     4.208025    1.877776   13.937008    ( 0.0000,  0.0000,  0.0000)
   6 Cu     1.584043    1.870614   13.935683    ( 0.0000,  0.0000,  0.0000)
   7 Cu     2.895325    0.035095   12.569773    ( 0.0000,  0.0000,  0.0000)
   8 Cu     2.897698    0.018737   15.220528    ( 0.0000,  0.0000,  0.0000)
   9 Cu     1.589635    1.868336   16.544856    ( 0.0000,  0.0000,  0.0000)
  10 Cu     4.204896    1.868057   16.547766    ( 0.0000,  0.0000,  0.0000)
  11 Cu     0.278887    0.016140   15.203240    ( 0.0000,  0.0000,  0.0000)
  12 Cu     0.282966    0.016777   17.828648    ( 0.0000,  0.0000,  0.0000)
  13 Cu     4.208451    1.860537   19.164619    ( 0.0000,  0.0000,  0.0000)
  14 Cu     1.596230    1.856791   19.170639    ( 0.0000,  0.0000,  0.0000)
  15 Cu     2.896204    0.007876   17.849413    ( 0.0000,  0.0000,  0.0000)
  16 Cu     2.903122    0.002763   20.475716    ( 0.0000,  0.0000,  0.0000)
  17 Cu     1.609941    1.865376   21.825706    ( 0.0000,  0.0000,  0.0000)
  18 Cu     4.214518    1.855499   21.766405    ( 0.0000,  0.0000,  0.0000)
  19 Cu     0.283756    0.023375   20.446240    ( 0.0000,  0.0000,  0.0000)
  20 Cu     0.297339    0.025427   23.052629    ( 0.0000,  0.0000,  0.0000)
  21 Cu     4.217636    1.850155   24.312849    ( 0.0000,  0.0000,  0.0000)
  22 Cu     1.560167    1.942320   24.512283    ( 0.0000,  0.0000,  0.0000)
  23 Cu     2.910510    0.007186   23.088238    ( 0.0000,  0.0000,  0.0000)
  24 Cu     2.829108    3.666432   10.009346    ( 0.0000,  0.0000,  0.0000)
  25 Cu     1.597319    5.590081   11.244933    ( 0.0000,  0.0000,  0.0000)
  26 Cu     4.213192    5.586268   11.339704    ( 0.0000,  0.0000,  0.0000)
  27 Cu     0.240490    3.616110    9.925730    ( 0.0000,  0.0000,  0.0000)
  28 Cu     0.296064    3.755179   12.561074    ( 0.0000,  0.0000,  0.0000)
  29 Cu     4.206906    5.579064   13.921879    ( 0.0000,  0.0000,  0.0000)
  30 Cu     1.593073    5.587614   13.889673    ( 0.0000,  0.0000,  0.0000)
  31 Cu     2.896612    3.746406   12.587648    ( 0.0000,  0.0000,  0.0000)
  32 Cu     2.894881    3.724616   15.213640    ( 0.0000,  0.0000,  0.0000)
  33 Cu     1.586616    5.566252   16.529768    ( 0.0000,  0.0000,  0.0000)
  34 Cu     4.205303    5.569280   16.541555    ( 0.0000,  0.0000,  0.0000)
  35 Cu     0.281896    3.730068   15.202139    ( 0.0000,  0.0000,  0.0000)
  36 Cu     0.278831    3.711308   17.829200    ( 0.0000,  0.0000,  0.0000)
  37 Cu     4.209650    5.560251   19.173819    ( 0.0000,  0.0000,  0.0000)
  38 Cu     1.585652    5.558771   19.160605    ( 0.0000,  0.0000,  0.0000)
  39 Cu     2.898899    3.715288   17.844135    ( 0.0000,  0.0000,  0.0000)
  40 Cu     2.899933    3.717149   20.463492    ( 0.0000,  0.0000,  0.0000)
  41 Cu     1.587722    5.576406   21.773538    ( 0.0000,  0.0000,  0.0000)
  42 Cu     4.215465    5.554686   21.842645    ( 0.0000,  0.0000,  0.0000)
  43 Cu     0.289290    3.690286   20.446204    ( 0.0000,  0.0000,  0.0000)
  44 Cu     0.287903    3.681559   23.055559    ( 0.0000,  0.0000,  0.0000)
  45 Cu     4.218984    5.563723   24.602795    ( 0.0000,  0.0000,  0.0000)
  46 Cu     1.551660    5.574576   24.309090    ( 0.0000,  0.0000,  0.0000)
  47 Cu     2.901596    3.720507   23.064090    ( 0.0000,  0.0000,  0.0000)
  48 Cu     6.824622    1.885305   11.361204    ( 0.0000,  0.0000,  0.0000)
  49 Cu     5.613951    0.094234   10.020170    ( 0.0000,  0.0000,  0.0000)
  50 Cu     5.526464    0.017655   12.590561    ( 0.0000,  0.0000,  0.0000)
  51 Cu     6.830155    1.883449   13.935738    ( 0.0000,  0.0000,  0.0000)
  52 Cu     6.820483    1.868126   16.545577    ( 0.0000,  0.0000,  0.0000)
  53 Cu     5.515937    0.021416   15.214828    ( 0.0000,  0.0000,  0.0000)
  54 Cu     5.514717    0.013211   17.845410    ( 0.0000,  0.0000,  0.0000)
  55 Cu     6.822055    1.862957   19.173266    ( 0.0000,  0.0000,  0.0000)
  56 Cu     6.821269    1.846381   21.829409    ( 0.0000,  0.0000,  0.0000)
  57 Cu     5.523273   -0.001688   20.463322    ( 0.0000,  0.0000,  0.0000)
  58 Cu     5.532795   -0.013326   23.059119    ( 0.0000,  0.0000,  0.0000)
  59 Cu     6.879466    1.748988   24.520077    ( 0.0000,  0.0000,  0.0000)
[...]
  67 Cu     6.831717    5.562480   19.160597    ( 0.0000,  0.0000,  0.0000)
  68 Cu     6.843569    5.533430   21.771691    ( 0.0000,  0.0000,  0.0000)
  69 Cu     5.519715    3.710382   20.479440    ( 0.0000,  0.0000,  0.0000)
  70 Cu     5.523006    3.701355   23.095253    ( 0.0000,  0.0000,  0.0000)
  71 Cu     6.889169    5.536708   24.305373    ( 0.0000,  0.0000,  0.0000)
  72 Cl     3.052308    0.406792   25.673193    ( 0.0000,  0.0000,  0.0000)
  73 Cl     3.930890    3.528274    8.078891    ( 0.0000,  0.0000,  0.0000)
  74 Cl     6.038559    6.593312   26.048633    ( 0.0000,  0.0000,  0.0000)
  75 Cl     1.811796   -1.443894    8.788114    ( 0.0000,  0.0000,  0.0000)
  76 Cl     4.526217    0.364034    8.095608    ( 0.0000,  0.0000,  0.0000)
  77 Cl     2.422380    4.535684   26.053144    ( 0.0000,  0.0000,  0.0000)
  78 Cl     6.645442    5.270798    8.783845    ( 0.0000,  0.0000,  0.0000)
  79 Cl     0.300616    1.874601   26.437928    ( 0.0000,  0.0000,  0.0000)
  80 Cl     5.392326    3.306374   25.658603    ( 0.0000,  0.0000,  0.0000)
  81 Cl     0.329808    1.906081    8.352140    ( 0.0000,  0.0000,  0.0000)

Unit cell:
           periodic     x           y           z      points  spacing
  1. axis:    yes    7.851007    0.000000    0.000000    45     0.1745
  2. axis:    yes    0.000000    7.402000    0.000000    42     0.1762
  3. axis:    yes    0.000000    0.000000   34.393512   196     0.1755

  Lengths:   7.851007   7.402000  34.393512
  Angles:   90.000000  90.000000  90.000000

Effective grid spacing dv^(1/3) = 0.1754

     iter     time        total  log10-change:
                         energy  eigst   dens
iter:   1 13:53:48 -5821.511342  -4.42
iter:   2 13:55:29 -5821.582137  -4.22  -3.23
iter:   3 13:56:45 -5821.493988c -4.69  -2.89
iter:   4 13:58:20 -5821.492873c -5.81  -3.99
iter:   5 13:59:42 -5821.492859c -6.10  -4.05c
iter:   6 14:00:55 -5821.492942c -6.69  -4.26c
iter:   7 14:02:25 -5821.492938c -7.19  -4.43c
iter:   8 14:03:39 -5821.492966c -7.37  -4.58c
iter:   9 14:04:54 -5821.492933c -7.65c -4.66c

Converged after 9 iterations.

Dipole moment: (-98.083612, -41.852390, -0.037902) |e|*Ang

Energy contributions relative to reference atoms: (reference = -3367094.026518)

Kinetic:       +610.028800
Potential:     -658.148267
External:        +0.000000
XC:            -5772.149252
Entropy (-ST):   -0.682229
Local:           -0.883099
Free energy:   -5821.834047
Extrapolated:  -5821.492933

Showing only first 2 kpts
 Kpt  Band  Eigenvalues  Occupancy
  0   429      0.37918    1.77779
  0   430      0.67006    0.60758
  0   431      0.78353    0.24607
  0   432      0.82051    0.17672

  1   429      0.20859    1.95561
  1   430      0.30215    1.89061
  1   431      0.37635    1.78332
  1   432      0.39256    1.74995

Fermi level: 0.58713

No gap

Forces in eV/Ang:
  0 Cu    0.00005   -0.01871   -0.00853
  1 Cu    0.00046   -0.00456   -0.01084
  2 Cu   -0.00065   -0.00155   -0.01096
  3 Cu   -0.00126   -0.00869   -0.00103
  4 Cu    0.00012   -0.00311   -0.00810
  5 Cu    0.00130   -0.00077    0.00147
  6 Cu    0.00145    0.00017    0.00428
  7 Cu    0.00296   -0.00299   -0.00490
  8 Cu    0.00211    0.00182   -0.00122
  9 Cu    0.00326   -0.00040   -0.00300
 10 Cu    0.00192    0.00142   -0.00601
 11 Cu    0.00107    0.00110    0.00223
 12 Cu   -0.00008    0.00046    0.00030
 13 Cu    0.00235   -0.00156    0.00044
 14 Cu    0.00178    0.00028    0.00014
 15 Cu    0.00282    0.00128   -0.00380
 16 Cu    0.00329    0.00342    0.00458
 17 Cu   -0.00027   -0.00087    0.00238
 18 Cu    0.00250    0.00342    0.00154
 19 Cu   -0.00198    0.00271   -0.00184
 20 Cu   -0.00306   -0.00317    0.00186
 21 Cu    0.00195    0.00419    0.00050
 22 Cu   -0.00309    0.00194   -0.00071
 23 Cu    0.00421   -0.00042    0.00884
 24 Cu   -0.00508    0.00447   -0.00379
 25 Cu    0.00165    0.00136    0.00027
 26 Cu   -0.00074    0.00002   -0.00496
 27 Cu    0.00057    0.00523   -0.00347
 28 Cu    0.00138   -0.00253   -0.00284
 29 Cu    0.00305   -0.00229    0.00253
 30 Cu    0.00210    0.00051    0.00105
 31 Cu    0.00276   -0.00116   -0.00546
 32 Cu    0.00444   -0.00104   -0.00248
 33 Cu    0.00481   -0.00027   -0.00265
 34 Cu    0.00176   -0.00024   -0.00176
 35 Cu    0.00051   -0.00011    0.00397
 36 Cu    0.00137    0.00044   -0.00275
 37 Cu    0.00054    0.00279   -0.00118
 38 Cu    0.00126    0.00412   -0.00182
 39 Cu    0.00122   -0.00056   -0.00315
 40 Cu    0.00112    0.00246   -0.00078
 41 Cu    0.00046    0.00346    0.00097
 42 Cu    0.00005    0.00536    0.00174
 43 Cu   -0.00141    0.00178    0.00150
 44 Cu    0.00234    0.00221    0.00567
 45 Cu    0.00017   -0.00220    0.00472
 46 Cu   -0.00066   -0.00033    0.00251
 47 Cu    0.00399    0.00329    0.00288
 48 Cu   -0.00212   -0.00181   -0.01120
 49 Cu   -0.00169   -0.00406   -0.01083
 50 Cu    0.00016    0.00050   -0.00387
 51 Cu    0.00177   -0.00107    0.00422
 52 Cu    0.00068   -0.00028   -0.00181
 53 Cu    0.00048    0.00231    0.00036
 54 Cu   -0.00077    0.00090   -0.00233
 55 Cu   -0.00137    0.00168   -0.00235
 56 Cu   -0.00440   -0.00159    0.00035
 57 Cu    0.00069   -0.00004    0.00076
 58 Cu    0.00007   -0.00109    0.00647
 59 Cu    0.00165    0.00327   -0.00115
[...]
 67 Cu    0.00040    0.00056   -0.00030
 68 Cu   -0.00521    0.00195    0.00295
 69 Cu    0.00258    0.00058    0.00168
 70 Cu   -0.00430    0.00269    0.00423
 71 Cu   -0.00625    0.00105    0.00573
 72 Cl   -0.00105    0.00002    0.00169
 73 Cl   -0.00062   -0.02529   -0.00050
 74 Cl    0.00220   -0.00118    0.00371
 75 Cl   -0.00635   -0.00809    0.00421
 76 Cl   -0.00240   -0.01519    0.00867
 77 Cl   -0.00300    0.00165    0.00300
 78 Cl   -0.00396   -0.00781    0.00770
 79 Cl   -0.00034   -0.00727   -0.00104
 80 Cl   -0.00499    0.00576    0.00247
 81 Cl   -0.00734   -0.00781    0.01459