User:   thorkong@node421.cluster
Date:   Fri Mar 31 14:23:47 2023
Arch:   x86_64
Pid:    9067
Python: 3.10.5
gpaw:   /groups/kemi/thorkong/miniconda3/envs/gpaw22/lib/python3.10/site-packages/gpaw
_gpaw:  /groups/kemi/thorkong/miniconda3/envs/gpaw22/lib/python3.10/site-packages/
        _gpaw.cpython-310-x86_64-linux-gnu.so
ase:    /groups/kemi/thorkong/miniconda3/envs/gpaw22/lib/python3.10/site-packages/ase (version 3.22.1)
numpy:  /groups/kemi/thorkong/miniconda3/envs/gpaw22/lib/python3.10/site-packages/numpy (version 1.23.0)
scipy:  /groups/kemi/thorkong/miniconda3/envs/gpaw22/lib/python3.10/site-packages/scipy (version 1.8.1)
units:  Angstrom and eV
cores: 32
OpenMP: True
OMP_NUM_THREADS: 1

Input parameters:
  basis: dzp
  kpts: [4 4 1]
  mode: {ecut: 600.0,
         name: pw}
  xc: BEEF-vdW

System changes: positions, numbers, cell, pbc, initial_charges, initial_magmoms

Initialize ...

Cu-setup:
  name: Copper
  id: f1c4d45d90492f1bbfdcb091e8418fdf
  Z: 29.0
  valence: 11
  core: 18
  charge: 0.0
  file: /groups/kemi/thorkong/miniconda3/envs/gpaw22/share/gpaw/Cu.PBE.gz
  compensation charges: gauss, rc=0.33, lmax=2
  cutoffs: 2.06(filt), 2.43(core),
  valence states:
                energy  radius
    4s(1.00)    -4.609   1.164
    4p(0.00)    -0.698   1.164
    3d(10.00)    -5.039   1.058
    *s          22.603   1.164
    *p          26.513   1.164
    *d          22.172   1.058

  LCAO basis set for Cu:
    Name: dzp
    File: /groups/kemi/thorkong/miniconda3/envs/gpaw22/share/gpaw/Cu.dzp.basis.gz
    Number of radial functions: 5
    Number of spherical harmonics: 15
      l=0, rc=8.9688 Bohr: 4s-sz confined orbital
      l=2, rc=5.1719 Bohr: 3d-sz confined orbital
      l=0, rc=5.3281 Bohr: 4s-dz split-valence wave
      l=2, rc=3.1406 Bohr: 3d-dz split-valence wave
      l=1, rc=8.9688 Bohr: p-type Gaussian polarization

Cl-setup:
  name: Chlorine
  id: 726897f06f34e53cf8e33b5885a02604
  Z: 17.0
  valence: 7
  core: 10
  charge: 0.0
  file: /groups/kemi/thorkong/miniconda3/envs/gpaw22/share/gpaw/Cl.PBE.gz
  compensation charges: gauss, rc=0.25, lmax=2
  cutoffs: 1.40(filt), 1.49(core),
  valence states:
                energy  radius
    3s(2.00)   -20.689   0.794
    3p(5.00)    -8.594   0.794
    *s           6.523   0.794
    *p          18.617   0.794
    *d           0.000   0.794

  LCAO basis set for Cl:
    Name: dzp
    File: /groups/kemi/thorkong/miniconda3/envs/gpaw22/share/gpaw/Cl.dzp.basis.gz
    Number of radial functions: 5
    Number of spherical harmonics: 13
      l=0, rc=5.1719 Bohr: 3s-sz confined orbital
      l=1, rc=6.2656 Bohr: 3p-sz confined orbital
      l=0, rc=2.8281 Bohr: 3s-dz split-valence wave
      l=1, rc=3.5156 Bohr: 3p-dz split-valence wave
      l=2, rc=6.2656 Bohr: d-type Gaussian polarization

Reference energy: -2606927.690960

Spin-paired calculation

Convergence criteria:
 Maximum [total energy] change in last 3 cyles: 0.0005 eV / electron
 Maximum integral of absolute [dens]ity change: 0.0001 electrons / valence electron
 Maximum integral of absolute [eigenst]ate change: 4e-08 eV^2 / valence electron
 Maximum number of scf [iter]ations: 333
 (Square brackets indicate name in SCF output, whereas a 'c' in
 the SCF output indicates the quantity has converged.)

Symmetries present (total): 1

  ( 1  0  0)
  ( 0  1  0)
  ( 0  0  1)

16 k-points: 4 x 4 x 1 Monkhorst-Pack grid
8 k-points in the irreducible part of the Brillouin zone
       k-points in crystal coordinates                weights
   0:     0.12500000   -0.37500000    0.00000000          2/16
   1:     0.12500000   -0.12500000    0.00000000          2/16
   2:     0.12500000    0.12500000    0.00000000          2/16
   3:     0.12500000    0.37500000    0.00000000          2/16
   4:     0.37500000   -0.37500000    0.00000000          2/16
   5:     0.37500000   -0.12500000    0.00000000          2/16
   6:     0.37500000    0.12500000    0.00000000          2/16
   7:     0.37500000    0.37500000    0.00000000          2/16

Wave functions: Plane wave expansion
  Cutoff energy: 600.000 eV
  Number of coefficients (min, max): 63070, 63184
  Pulay-stress correction: 0.000000 eV/Ang^3 (de/decut=0.000000)
  Using FFTW library
  ScaLapack parameters: grid=2x2, blocksize=64
  Wavefunction extrapolation:
    Improved wavefunction reuse through dual PAW basis

Occupation numbers: Fermi-Dirac: width=0.1000 eV

Eigensolver
   Davidson(niter=2)

Densities:
  Coarse grid: 45*48*175 grid
  Fine grid: 90*96*350 grid
  Total Charge: 0.000000

Density mixing:
  Method: separate
  Backend: pulay
  Linear mixing parameter: 0.05
  Mixing with 5 old densities
  Damping of long wave oscillations: 50

Hamiltonian:
  XC and Coulomb potentials evaluated on a 90*96*350 grid
  Using the BEEF-vdW Exchange-Correlation functional
  External potential:
    NoExternalPotential

XC parameters: BEEF-vdW with 2 nearest neighbor stencil

Total number of cores used: 32
Parallelization over k-points: 8
Domain decomposition: 1 x 1 x 4
                      2 x 2 x 8 (xc only)

Number of atoms: 68
Number of atomic orbitals: 992
Number of bands in calculation: 420
Number of valence electrons: 692
Bands to converge: occupied

... initialized

Initializing position-dependent things.

Density initialized from atomic densities
Creating initial wave functions:
  420 bands from LCAO basis set

                  Cl        Cl

             Cl    Cl     Cl
           Cl    CCl   Cu

         Cu    Cu    CCu   Cu
             Cu    Cu     Cu
       Cu     Cu    Cu
           Cu    CCu   CCu
         Cu    Cu    CCu   Cu

       Cu    CCu   CCu    Cu
           Cu    CCu   CCu

         Cu    Cu    CCu   Cu
             Cu    Cu     Cu
       Cu     Cu    Cu
           Cu Cl  Cu    Cu

         Cl    Cl     Cl
        Cl    Cl

Positions:
   0 Cu     1.882980    1.834058   10.017163    ( 0.0000,  0.0000,  0.0000)
   1 Cu     0.574479    0.525542   11.830785    ( 0.0000,  0.0000,  0.0000)
   2 Cu     3.191482    0.525542   11.830784    ( 0.0000,  0.0000,  0.0000)
   3 Cu     1.882983    1.834038   13.694912    ( 0.0000,  0.0000,  0.0000)
   4 Cu     0.574483    0.525535   15.557280    ( 0.0000,  0.0000,  0.0000)
   5 Cu     3.191485    0.525535   15.557280    ( 0.0000,  0.0000,  0.0000)
   6 Cu     1.882984    1.834040   17.421564    ( 0.0000,  0.0000,  0.0000)
   7 Cu     0.574482    0.525554   19.234911    ( 0.0000,  0.0000,  0.0000)
   8 Cu     3.191484    0.525554   19.234911    ( 0.0000,  0.0000,  0.0000)
   9 Cu     0.574480    3.142544   11.830784    ( 0.0000,  0.0000,  0.0000)
  10 Cu     0.574483    3.142538   15.557280    ( 0.0000,  0.0000,  0.0000)
  11 Cu     0.574482    3.142556   19.234911    ( 0.0000,  0.0000,  0.0000)
  12 Cu     7.116984    1.834058   10.017163    ( 0.0000,  0.0000,  0.0000)
  13 Cu     5.808484    0.525542   11.830784    ( 0.0000,  0.0000,  0.0000)
  14 Cu     7.116987    1.834038   13.694912    ( 0.0000,  0.0000,  0.0000)
  15 Cu     5.808487    0.525535   15.557280    ( 0.0000,  0.0000,  0.0000)
  16 Cu     7.116989    1.834040   17.421564    ( 0.0000,  0.0000,  0.0000)
  17 Cu     5.808486    0.525554   19.234911    ( 0.0000,  0.0000,  0.0000)
  18 Cu     4.499982    1.834058   10.017163    ( 0.0000,  0.0000,  0.0000)
  19 Cu     4.499982    4.451060   10.017163    ( 0.0000,  0.0000,  0.0000)
  20 Cu     3.191482    3.142544   11.830784    ( 0.0000,  0.0000,  0.0000)
  21 Cu     5.808484    3.142544   11.830785    ( 0.0000,  0.0000,  0.0000)
  22 Cu     4.499985    1.834038   13.694912    ( 0.0000,  0.0000,  0.0000)
  23 Cu     4.499985    4.451040   13.694912    ( 0.0000,  0.0000,  0.0000)
  24 Cu     3.191485    3.142538   15.557280    ( 0.0000,  0.0000,  0.0000)
  25 Cu     5.808487    3.142538   15.557280    ( 0.0000,  0.0000,  0.0000)
  26 Cu     4.499986    1.834040   17.421564    ( 0.0000,  0.0000,  0.0000)
  27 Cu     4.499986    4.451042   17.421564    ( 0.0000,  0.0000,  0.0000)
  28 Cu     3.191484    3.142556   19.234911    ( 0.0000,  0.0000,  0.0000)
  29 Cu     5.808486    3.142556   19.234911    ( 0.0000,  0.0000,  0.0000)
  30 Cu     1.882980    4.451060   10.017163    ( 0.0000,  0.0000,  0.0000)
  31 Cu     1.882980    7.068062   10.017163    ( 0.0000,  0.0000,  0.0000)
  32 Cu     0.574480    5.759547   11.830784    ( 0.0000,  0.0000,  0.0000)
  33 Cu     3.191482    5.759547   11.830784    ( 0.0000,  0.0000,  0.0000)
  34 Cu     1.882983    4.451040   13.694912    ( 0.0000,  0.0000,  0.0000)
  35 Cu     1.882983    7.068043   13.694912    ( 0.0000,  0.0000,  0.0000)
  36 Cu     0.574483    5.759540   15.557280    ( 0.0000,  0.0000,  0.0000)
  37 Cu     3.191485    5.759540   15.557280    ( 0.0000,  0.0000,  0.0000)
  38 Cu     1.882984    4.451042   17.421564    ( 0.0000,  0.0000,  0.0000)
  39 Cu     1.882984    7.068044   17.421564    ( 0.0000,  0.0000,  0.0000)
  40 Cu     0.574482    5.759558   19.234911    ( 0.0000,  0.0000,  0.0000)
  41 Cu     3.191484    5.759558   19.234911    ( 0.0000,  0.0000,  0.0000)
  42 Cu     7.116984    4.451060   10.017163    ( 0.0000,  0.0000,  0.0000)
  43 Cu     7.116984    7.068062   10.017163    ( 0.0000,  0.0000,  0.0000)
  44 Cu     5.808484    5.759547   11.830785    ( 0.0000,  0.0000,  0.0000)
  45 Cu     7.116987    4.451040   13.694912    ( 0.0000,  0.0000,  0.0000)
  46 Cu     7.116987    7.068043   13.694912    ( 0.0000,  0.0000,  0.0000)
  47 Cu     5.808487    5.759540   15.557280    ( 0.0000,  0.0000,  0.0000)
  48 Cu     7.116989    4.451042   17.421564    ( 0.0000,  0.0000,  0.0000)
  49 Cu     7.116989    7.068044   17.421564    ( 0.0000,  0.0000,  0.0000)
  50 Cu     5.808486    5.759558   19.234911    ( 0.0000,  0.0000,  0.0000)
  51 Cu     4.499982    7.068062   10.017163    ( 0.0000,  0.0000,  0.0000)
  52 Cu     4.499985    7.068043   13.694912    ( 0.0000,  0.0000,  0.0000)
  53 Cu     4.499986    7.068044   17.421564    ( 0.0000,  0.0000,  0.0000)
  54 Cl     1.882983    1.834055   21.234911    ( 0.0000,  0.0000,  0.0000)
  55 Cl     4.382983    1.834055   21.234911    ( 0.0000,  0.0000,  0.0000)
  56 Cl     4.382983    4.534055   21.234911    ( 0.0000,  0.0000,  0.0000)
  57 Cl     1.682983    4.534055   21.234911    ( 0.0000,  0.0000,  0.0000)
  58 Cl     2.982983    7.534055   21.234911    ( 0.0000,  0.0000,  0.0000)
  59 Cl     7.182983    7.134055   21.234911    ( 0.0000,  0.0000,  0.0000)
  60 Cl     7.582983    3.134055   21.234911    ( 0.0000,  0.0000,  0.0000)
  61 Cl     0.647269    0.412626    7.934911    ( 0.0000,  0.0000,  0.0000)
  62 Cl     3.147269    0.412626    7.934911    ( 0.0000,  0.0000,  0.0000)
  63 Cl     3.147269    3.112626    7.934911    ( 0.0000,  0.0000,  0.0000)
  64 Cl     0.447269    3.112626    7.934911    ( 0.0000,  0.0000,  0.0000)
  65 Cl     1.747269    6.112626    7.934911    ( 0.0000,  0.0000,  0.0000)
  66 Cl     5.947269    5.712626    7.934911    ( 0.0000,  0.0000,  0.0000)
  67 Cl     6.347269    1.712626    7.934911    ( 0.0000,  0.0000,  0.0000)

Unit cell:
           periodic     x           y           z      points  spacing
  1. axis:    yes    7.851007    0.000000    0.000000    45     0.1655
[...]
            Cu    Cu    CCu   Cu
                Cu    Cu
          Cu     Cu    Cu    Cu
              Cu     Cu  ClCu
                  Cl
         Cl
           Cl
                       Cl

[...]

                  Cl
                       Cl     Cl
                Cl          Cl
                    Cu    Cu
             CCl     Cl
            Cu   CCu    CCu   Cu
          Cu    Cu    CCu    Cu

[...]

            Cu    Cu    CCu   Cu
          Cu    CCu   CCu    Cu
              Cl
              Cu     Cu  ClCu
                  Cl
         Cl
           Cl
                       Cl

[...]

             CCl    CCl   Cu
            Cu   CCu    CCu   Cu

[...]

              Cu    CCu   CCu
            Cu    Cu    CCu   Cu

           Cu   CCu   CCu    Cu
              CCu    Cu  Cl
                           Cu
         Cl       Cl
           Cl

[...]

                  Cl
                       Cl     Cl
                Cl          Cl

              Cl    CCl   Cu
            Cu    Cu    CCu   Cu

          Cu    CCu   CCu    Cu
              Cu    CCu   CCu

            Cu    Cu    CCu   Cu
          Cu    CCu   CCu    Cu

              CCu   CCu   CCu
            Cu    Cu    CCu   Cu

           Cu   CCu   CCu    Cu
               Cu    Cu   Cl
                           Cu
         Cl       Cl
           Cl

[...]

                  Cl
                        Cl     Cl
                 Cl          Cl
                     Cu
              Cl      Cl   Cu
            Cu    CCu    CCu   Cu
           Cu           Cu
                 Cu    Cu     Cu
              CCu    Cu    CCu

[...]

           Cu    CCu   CCu    Cu
               Cu     Cu  ClCu

[...]

                   Cl
                        Cl     Cl
                 Cl          Cl
                     Cu    Cu
              CCl     Cl
             Cu   CCu    CCu   Cu
           Cu    Cu     Cu
                 Cu    Cu     Cu
              CCu    CCu   CCu
                         Cu    Cu
             Cu   CCu     Cu
           Cu    CCu   CCu    Cu
                     Cu
              CCu     Cu   CCu
             Cu    Cu    CCu   Cu

           Cu    CCu   CCu    Cu
               Cu     Cu   CCu
                   Cl
         Cl
            Cl

[...]

                   Cl
                        Cl     Cl
                 Cl          Cl
                     CCl   Cu
               Cl
             Cu    Cu    CCu   Cu
           Cu    CCu   CCu    Cu

[...]

             Cu    CCu   CCu   Cu
            Cu   CCu    Cu
                        Cu    Cu
                Cu    Cu   CCu
                    Cl
         Cl
            Cl

[...]

                   Cl
                        Cl     Cl
                 Cl          Cl
                     CCl   Cu
               Cl
             Cu    Cu    CCu   Cu
           Cu    CCu   CCu    Cu

               Cu    CCu   CCu
             Cu    Cu    CCu   Cu

[...]

             Cu    CCu   CCu   Cu
            Cu   CCu    Cu
                              Cu
                Cu    Cu   CCu
                    Cl
         Cl
            Cl

[...]

                   Cl
                        Cl     Cl
                 Cl          Cl
               Cu    CCl   Cu
               Cl
             Cu    Cu    CCu   Cu
           Cu    CCu   CCu    Cu

               Cu    CCu   CCu
             Cu    CCu   CCu   Cu

            Cu   CCu    Cu    Cu
               CCu   CCu   CCu

[...]

                   Cl
                        Cl     Cl
                 Cl          Cl
               Cu    CCl   Cu
               Cl
             Cu    CCu   CCu   Cu
           Cu    CCu   CCu    Cu

[...]

             Cu    CCu   CCu   Cu
            Cu   CCu    Cu
                              Cu
                Cu    Cu   CCu
                    Cl
         Cl
            Cl

[...]

                    Cl
                         Cl     Cl
                  Cl          Cl
                      CCl
               CCl          Cu
              Cu   CCu    CCu   Cu
            Cu     Cu    Cu
                  Cu    Cu     Cu
               CCu    CCu   CCu

[...]

            Cu    CCu   CCu    Cu
                Cu     Cu   CCu

[...]

              Cu   CCu    CCu   Cu
            Cu    CCu   CCu    Cu
                            Cl
                Cu     Cu    Cu
         Cl         Cl

[...]

                    Cl
                         Cl     Cl
                  Cl          Cl
                      CCl   Cu
               CCl
              Cu   CCu    CCu   Cu
            Cu     Cu    Cu
                  Cu    Cu     Cu
               CCu    CCu   CCu

              Cu   CCu    CCu   Cu
            Cu    CCu   CCu    Cu

[...]

            Cu    CCu   CCu    Cu
                Cu     Cu   CCu

         Cl         Cl
             Cl

[...]

              Cu   CCu    CCu   Cu
            Cu    CCu   CCu    Cu
                            Cl
                Cu     Cu    Cu
         Cl         Cl

[...]

              Cu   CCu    CCu   Cu
            Cu    CCu   CCu    Cu
                            Cl
                Cul    Cu    Cu
         Cl         Cl

[...]

     iter     time        total  log10-change:
                         energy  eigst   dens
iter:   1 15:59:38 -4597.777425  -3.32
iter:   2 16:00:54 -4597.823402  -3.74  -2.86
iter:   3 16:02:10 -4597.709205c -4.47  -2.76
iter:   4 16:03:27 -4597.708300c -5.29  -3.42
iter:   5 16:04:43 -4597.713009c -4.92  -3.38
iter:   6 16:06:00 -4597.707896c -5.71  -3.47
iter:   7 16:07:16 -4597.707948c -6.23  -3.77
iter:   8 16:08:32 -4597.707071c -6.13  -3.90
iter:   9 16:09:48 -4597.706876c -6.49  -4.03c
iter:  10 16:11:04 -4597.707908c -6.43  -3.99
iter:  11 16:12:21 -4597.707331c -7.24  -4.23c
iter:  12 16:13:37 -4597.707463c -6.89  -4.36c
iter:  13 16:14:53 -4597.707350c -7.08  -4.52c
iter:  14 16:16:09 -4597.707401c -7.37  -4.76c
iter:  15 16:17:26 -4597.707431c -8.26c -4.93c

[...]

                Cu    CCu   CCu
              Cu   CCu    CCu   Cu

             Cu   CCu   CCu    Cu
               CuCu   CCu   CCu

              Cu   CuCu   CCu   Cu
             Cu   CCu    Cu    Cu
                            Cl
                 Cu    Cu    Cu
         Cl         Cl

[...]

                    Cl
                         Cl     Cl
                  Cl          Cl
               Cu     CCl   Cu
                Cl
              Cu    Cu    CCu   Cu
            Cu    CCu   CCu    Cu

[...]

System changes: positions

Initializing position-dependent things.

Density initialized from wave functions

                    Cl
                         Cl     Cl
                  Cl          Cl
               Cu     CCl   Cu
                Cl
              Cu   CCu    CCu   Cu
            Cu    CCu   CCu    Cu

               CCu    CCu   CCu
              Cu   CCu    CCu   Cu

            Cu    CCu   CCu    Cu
               CCu    CCu   CCu

              Cu   CCu    CCu   Cu
            Cu    CCu   CCu    Cu
                            Cl
                Cul    Cu    Cu
         Cl         Cl

[...]

                    Cl

Positions:
   0 Cu     1.961379    1.837462   10.096880    ( 0.0000,  0.0000,  0.0000)
   1 Cu     0.631051    0.523315   11.931167    ( 0.0000,  0.0000,  0.0000)
   2 Cu     3.278316    0.526454   11.915930    ( 0.0000,  0.0000,  0.0000)
   3 Cu     1.960493    1.837186   13.758423    ( 0.0000,  0.0000,  0.0000)
   4 Cu     0.642131    0.529627   15.589513    ( 0.0000,  0.0000,  0.0000)
   5 Cu     3.258076    0.528887   15.622026    ( 0.0000,  0.0000,  0.0000)
   6 Cu     1.927362    1.822809   17.486513    ( 0.0000,  0.0000,  0.0000)
   7 Cu     0.608018    0.513968   19.426477    ( 0.0000,  0.0000,  0.0000)
   8 Cu     3.212054    0.533013   19.352657    ( 0.0000,  0.0000,  0.0000)
   9 Cu     0.650802    3.154649   11.917717    ( 0.0000,  0.0000,  0.0000)
  10 Cu     0.641497    3.128065   15.607542    ( 0.0000,  0.0000,  0.0000)
  11 Cu     0.614548    3.083738   19.407740    ( 0.0000,  0.0000,  0.0000)
  12 Cu     7.181095    1.809777   10.080575    ( 0.0000,  0.0000,  0.0000)
  13 Cu     5.851869    0.522209   11.889629    ( 0.0000,  0.0000,  0.0000)
  14 Cu     7.177786    1.831660   13.756486    ( 0.0000,  0.0000,  0.0000)
  15 Cu     5.874549    0.529271   15.615383    ( 0.0000,  0.0000,  0.0000)
  16 Cu     7.194876    1.823229   17.489570    ( 0.0000,  0.0000,  0.0000)
  17 Cu     5.917239    0.549662   19.398792    ( 0.0000,  0.0000,  0.0000)
  18 Cu     4.608074    1.817228   10.039898    ( 0.0000,  0.0000,  0.0000)
  19 Cu     4.607079    4.485309    9.980232    ( 0.0000,  0.0000,  0.0000)
  20 Cu     3.277383    3.162354   11.913232    ( 0.0000,  0.0000,  0.0000)
  21 Cu     5.894168    3.157181   11.897562    ( 0.0000,  0.0000,  0.0000)
  22 Cu     4.568727    1.839325   13.770603    ( 0.0000,  0.0000,  0.0000)
  23 Cu     4.571237    4.439013   13.783020    ( 0.0000,  0.0000,  0.0000)
  24 Cu     3.257849    3.135917   15.632502    ( 0.0000,  0.0000,  0.0000)
  25 Cu     5.883880    3.131819   15.611301    ( 0.0000,  0.0000,  0.0000)
  26 Cu     4.589498    1.830899   17.480425    ( 0.0000,  0.0000,  0.0000)
  27 Cu     4.581378    4.458260   17.447912    ( 0.0000,  0.0000,  0.0000)
  28 Cu     3.279683    3.158525   19.248759    ( 0.0000,  0.0000,  0.0000)
  29 Cu     5.955591    3.179328   19.347113    ( 0.0000,  0.0000,  0.0000)
  30 Cu     1.989866    4.445724   10.071079    ( 0.0000,  0.0000,  0.0000)
  31 Cu     1.914087    7.079059   10.062522    ( 0.0000,  0.0000,  0.0000)
  32 Cu     0.628178    5.741964   11.899779    ( 0.0000,  0.0000,  0.0000)
  33 Cu     3.261656    5.747828   11.929776    ( 0.0000,  0.0000,  0.0000)
  34 Cu     1.949898    4.454112   13.785872    ( 0.0000,  0.0000,  0.0000)
  35 Cu     1.934400    7.064742   13.763513    ( 0.0000,  0.0000,  0.0000)
  36 Cu     0.643749    5.763553   15.640903    ( 0.0000,  0.0000,  0.0000)
  37 Cu     3.260408    5.772443   15.607181    ( 0.0000,  0.0000,  0.0000)
  38 Cu     1.956598    4.444568   17.445633    ( 0.0000,  0.0000,  0.0000)
  39 Cu     1.970790    7.094002   17.470150    ( 0.0000,  0.0000,  0.0000)
  40 Cu     0.644890    5.750761   19.202629    ( 0.0000,  0.0000,  0.0000)
  41 Cu     3.303881    5.824329   19.347617    ( 0.0000,  0.0000,  0.0000)
  42 Cu     7.239000    4.426141    9.966655    ( 0.0000,  0.0000,  0.0000)
  43 Cu     7.169924    7.085295   10.036295    ( 0.0000,  0.0000,  0.0000)
  44 Cu     5.873399    5.730766   11.905046    ( 0.0000,  0.0000,  0.0000)
  45 Cu     7.189109    4.458009   13.778272    ( 0.0000,  0.0000,  0.0000)
  46 Cu     7.185204    7.059900   13.773665    ( 0.0000,  0.0000,  0.0000)
  47 Cu     5.873615    5.765667   15.613214    ( 0.0000,  0.0000,  0.0000)
  48 Cu     7.177898    4.432082   17.455571    ( 0.0000,  0.0000,  0.0000)
  49 Cu     7.166152    7.080952   17.467193    ( 0.0000,  0.0000,  0.0000)
  50 Cu     5.806715    5.713319   19.327359    ( 0.0000,  0.0000,  0.0000)
  51 Cu     4.533638    7.071432   10.131669    ( 0.0000,  0.0000,  0.0000)
  52 Cu     4.575570    7.067740   13.761612    ( 0.0000,  0.0000,  0.0000)
  53 Cu     4.556437    7.087119   17.475173    ( 0.0000,  0.0000,  0.0000)
  54 Cl     1.919062    1.246898   21.202645    ( 0.0000,  0.0000,  0.0000)
  55 Cl     4.596663    2.217699   20.937111    ( 0.0000,  0.0000,  0.0000)
  56 Cl     4.572749    5.659776   21.345421    ( 0.0000,  0.0000,  0.0000)
  57 Cl     1.962784    4.517676   20.764785    ( 0.0000,  0.0000,  0.0000)
  58 Cl     1.952636    7.854103   21.351623    ( 0.0000,  0.0000,  0.0000)
  59 Cl     7.179010    6.848862   20.803893    ( 0.0000,  0.0000,  0.0000)
  60 Cl     7.170706    3.494908   21.361849    ( 0.0000,  0.0000,  0.0000)
  61 Cl     0.742695    0.537669    8.439457    ( 0.0000,  0.0000,  0.0000)
  62 Cl     4.005040   -0.225739    4.809699    ( 0.0000,  0.0000,  0.0000)
  63 Cl     3.245993    3.006900    8.409192    ( 0.0000,  0.0000,  0.0000)
  64 Cl    -1.345713    2.998583    8.203642    ( 0.0000,  0.0000,  0.0000)
  65 Cl     1.150131    5.737841    8.289651    ( 0.0000,  0.0000,  0.0000)
  66 Cl     5.737703    6.158276    8.340845    ( 0.0000,  0.0000,  0.0000)
  67 Cl     5.220498    0.913767    5.949863    ( 0.0000,  0.0000,  0.0000)

Unit cell:
           periodic     x           y           z      points  spacing
  1. axis:    yes    7.851007    0.000000    0.000000    45     0.1655
  2. axis:    yes    2.617002    7.851007    0.000000    48     0.1636
  3. axis:    yes    0.000000    0.000000   30.683867   175     0.1753

  Lengths:   7.851007   8.275688  30.683867
  Angles:   90.000000  90.000000  71.565053

Effective grid spacing dv^(1/3) = 0.1710

     iter     time        total  log10-change:
                         energy  eigst   dens
iter:   1 17:37:34 -4597.721027  -3.86
iter:   2 17:38:51 -4597.718345  -4.54  -3.13
iter:   3 17:40:08 -4597.713239c -5.67  -3.48
iter:   4 17:41:25 -4597.715732c -5.78  -3.58
iter:   5 17:42:42 -4597.712109c -5.45  -3.59
iter:   6 17:44:00 -4597.713082c -6.07  -3.79
iter:   7 17:45:17 -4597.712970c -6.78  -4.10c
iter:   8 17:46:35 -4597.713030c -6.99  -4.23c
iter:   9 17:47:53 -4597.713076c -6.91  -4.34c
iter:  10 17:49:10 -4597.712719c -7.42c -4.44c

Converged after 10 iterations.

Dipole moment: (-14.673480, -23.271697, -0.332940) |e|*Ang

Energy contributions relative to reference atoms: (reference = -2606927.690960)

Kinetic:       +552.918006
Potential:     -572.634598
External:        +0.000000
XC:            -4576.929891
Entropy (-ST):   -0.659173
Local:           -0.736650
Free energy:   -4598.042306
Extrapolated:  -4597.712719

Showing only first 2 kpts
 Kpt  Band  Eigenvalues  Occupancy
  0   344     -0.38190    1.89683
  0   345     -0.32977    1.83216
  0   346     -0.24771    1.65547
  0   347     -0.05236    0.81038

  1   344     -0.16274    1.34520
  1   345     -0.08296    0.96110
  1   346     -0.05004    0.79922
  1   347      0.13200    0.19463

Fermi level: -0.09075

No gap

Forces in eV/Ang:
  0 Cu   -0.00019   -0.00123    0.00124
  1 Cu   -0.00521    0.00556    0.00549
  2 Cu   -0.00149    0.00069   -0.00177
  3 Cu    0.00468    0.00216   -0.00293
  4 Cu    0.00161   -0.00229    0.00135
  5 Cu   -0.00044    0.00219    0.00033
  6 Cu    0.00155    0.00743    0.00284
  7 Cu    0.00544    0.00338    0.00162
  8 Cu   -0.00224    0.00101   -0.00516
  9 Cu   -0.00663    0.00186    0.00323
 10 Cu    0.00205    0.00334    0.00301
 11 Cu    0.00691   -0.00751   -0.00824
 12 Cu   -0.01011    0.00217   -0.00248
 13 Cu   -0.00590   -0.00208   -0.00247
 14 Cu    0.00113   -0.00142    0.00519
 15 Cu    0.00390    0.00205    0.00118
 16 Cu    0.00197   -0.00125   -0.00035
 17 Cu    0.00729    0.00638    0.00443
 18 Cu   -0.01162   -0.00106    0.00930
 19 Cu    0.00578    0.00560    0.01085
 20 Cu    0.00215    0.00066    0.00068
 21 Cu    0.00140   -0.00042    0.00150
 22 Cu    0.00641   -0.00169    0.00704
 23 Cu    0.00438    0.00174   -0.00461
 24 Cu    0.00911   -0.00068    0.00282
 25 Cu   -0.00048    0.00412    0.00456
 26 Cu   -0.00134   -0.00064    0.00035
 27 Cu   -0.00240   -0.00254    0.00304
 28 Cu    0.00522   -0.00157   -0.00807
 29 Cu   -0.00012    0.00142   -0.00325
 30 Cu    0.00025    0.00829   -0.00059
 31 Cu   -0.00005   -0.00498    0.00630
 32 Cu    0.00393    0.00052   -0.00559
 33 Cu    0.00523    0.00522    0.00427
 34 Cu    0.00385   -0.00051   -0.00500
 35 Cu   -0.00473   -0.00061   -0.00856
 36 Cu    0.00113   -0.00272   -0.00241
 37 Cu    0.00187   -0.00215   -0.00199
 38 Cu    0.00963   -0.00112    0.00214
 39 Cu   -0.00264    0.00345    0.00770
 40 Cu    0.00366    0.00590   -0.00493
 41 Cu    0.00244   -0.00209   -0.00100
 42 Cu    0.01178    0.00663    0.00352
 43 Cu   -0.00203    0.00030   -0.00164
 44 Cu    0.00199    0.01005    0.00227
 45 Cu   -0.00084    0.00079   -0.00231
 46 Cu    0.00071    0.00063   -0.00487
 47 Cu   -0.00113   -0.00095    0.00310
 48 Cu   -0.00208   -0.00301    0.00527
 49 Cu   -0.00020    0.00401   -0.00010
 50 Cu    0.00292   -0.00797   -0.00747
 51 Cu    0.00066    0.00330   -0.00631
 52 Cu    0.00191    0.00655   -0.00003
 53 Cu   -0.00338   -0.00461    0.00559
 54 Cl   -0.01233   -0.00459    0.00535
 55 Cl   -0.02210    0.00330   -0.00200
 56 Cl   -0.00161   -0.00962    0.00163
 57 Cl    0.00111    0.00166   -0.01366
 58 Cl    0.00379   -0.00094    0.00228
 59 Cl    0.00125    0.00003    0.00663
 60 Cl   -0.00792   -0.00909   -0.00037
 61 Cl   -0.00578   -0.00376   -0.00226
 62 Cl   -0.00242   -0.02550    0.00225
 63 Cl   -0.01100    0.00947    0.00570
 64 Cl    0.01642    0.00966    0.00069
 65 Cl   -0.00537   -0.01157   -0.00091
 66 Cl   -0.01341    0.00149   -0.01183
 67 Cl   -0.00448   -0.00734   -0.00120