User:   thorkong@node043.cluster
Date:   Mon Oct 17 14:48:51 2022
Arch:   x86_64
Pid:    17665
Python: 3.10.5
gpaw:   /groups/kemi/thorkong/miniconda3/envs/gpaw22/lib/python3.10/site-packages/gpaw
_gpaw:  /groups/kemi/thorkong/miniconda3/envs/gpaw22/lib/python3.10/site-packages/
        _gpaw.cpython-310-x86_64-linux-gnu.so
ase:    /groups/kemi/thorkong/miniconda3/envs/gpaw22/lib/python3.10/site-packages/ase (version 3.22.1)
numpy:  /groups/kemi/thorkong/miniconda3/envs/gpaw22/lib/python3.10/site-packages/numpy (version 1.23.0)
scipy:  /groups/kemi/thorkong/miniconda3/envs/gpaw22/lib/python3.10/site-packages/scipy (version 1.8.1)
units:  Angstrom and eV
cores: 32
OpenMP: True
OMP_NUM_THREADS: 1

Input parameters:
  basis: dzp
  kpts: [4 4 1]
  mode: {ecut: 600.0,
         name: pw}
  xc: BEEF-vdW

System changes: positions, numbers, cell, pbc, initial_charges, initial_magmoms

Initialize ...

Cu-setup:
  name: Copper
  id: f1c4d45d90492f1bbfdcb091e8418fdf
  Z: 29.0
  valence: 11
  core: 18
  charge: 0.0
  file: /groups/kemi/thorkong/miniconda3/envs/gpaw22/share/gpaw/Cu.PBE.gz
  compensation charges: gauss, rc=0.33, lmax=2
  cutoffs: 2.06(filt), 2.43(core),
  valence states:
                energy  radius
    4s(1.00)    -4.609   1.164
    4p(0.00)    -0.698   1.164
    3d(10.00)    -5.039   1.058
    *s          22.603   1.164
    *p          26.513   1.164
    *d          22.172   1.058

  LCAO basis set for Cu:
    Name: dzp
    File: /groups/kemi/thorkong/miniconda3/envs/gpaw22/share/gpaw/Cu.dzp.basis.gz
    Number of radial functions: 5
    Number of spherical harmonics: 15
      l=0, rc=8.9688 Bohr: 4s-sz confined orbital
      l=2, rc=5.1719 Bohr: 3d-sz confined orbital
      l=0, rc=5.3281 Bohr: 4s-dz split-valence wave
      l=2, rc=3.1406 Bohr: 3d-dz split-valence wave
      l=1, rc=8.9688 Bohr: p-type Gaussian polarization

Cl-setup:
  name: Chlorine
  id: 726897f06f34e53cf8e33b5885a02604
  Z: 17.0
  valence: 7
  core: 10
  charge: 0.0
  file: /groups/kemi/thorkong/miniconda3/envs/gpaw22/share/gpaw/Cl.PBE.gz
  compensation charges: gauss, rc=0.25, lmax=2
  cutoffs: 1.40(filt), 1.49(core),
  valence states:
                energy  radius
    3s(2.00)   -20.689   0.794
    3p(5.00)    -8.594   0.794
    *s           6.523   0.794
    *p          18.617   0.794
    *d           0.000   0.794

  LCAO basis set for Cl:
    Name: dzp
    File: /groups/kemi/thorkong/miniconda3/envs/gpaw22/share/gpaw/Cl.dzp.basis.gz
    Number of radial functions: 5
    Number of spherical harmonics: 13
      l=0, rc=5.1719 Bohr: 3s-sz confined orbital
      l=1, rc=6.2656 Bohr: 3p-sz confined orbital
      l=0, rc=2.8281 Bohr: 3s-dz split-valence wave
      l=1, rc=3.5156 Bohr: 3p-dz split-valence wave
      l=2, rc=6.2656 Bohr: d-type Gaussian polarization

Reference energy: -2632037.589752

Spin-paired calculation

Convergence criteria:
 Maximum [total energy] change in last 3 cyles: 0.0005 eV / electron
 Maximum integral of absolute [dens]ity change: 0.0001 electrons / valence electron
 Maximum integral of absolute [eigenst]ate change: 4e-08 eV^2 / valence electron
 Maximum number of scf [iter]ations: 333
 (Square brackets indicate name in SCF output, whereas a 'c' in
 the SCF output indicates the quantity has converged.)

Symmetries present (total): 1

  ( 1  0  0)
  ( 0  1  0)
  ( 0  0  1)

16 k-points: 4 x 4 x 1 Monkhorst-Pack grid
8 k-points in the irreducible part of the Brillouin zone
       k-points in crystal coordinates                weights
   0:     0.12500000   -0.37500000    0.00000000          2/16
   1:     0.12500000   -0.12500000    0.00000000          2/16
   2:     0.12500000    0.12500000    0.00000000          2/16
   3:     0.12500000    0.37500000    0.00000000          2/16
   4:     0.37500000   -0.37500000    0.00000000          2/16
   5:     0.37500000   -0.12500000    0.00000000          2/16
   6:     0.37500000    0.12500000    0.00000000          2/16
   7:     0.37500000    0.37500000    0.00000000          2/16

Wave functions: Plane wave expansion
  Cutoff energy: 600.000 eV
  Number of coefficients (min, max): 63070, 63184
  Pulay-stress correction: 0.000000 eV/Ang^3 (de/decut=0.000000)
  Using FFTW library
  ScaLapack parameters: grid=2x2, blocksize=64
  Wavefunction extrapolation:
    Improved wavefunction reuse through dual PAW basis

Occupation numbers: Fermi-Dirac: width=0.1000 eV

Eigensolver
   Davidson(niter=2)

Densities:
  Coarse grid: 45*48*175 grid
  Fine grid: 90*96*350 grid
  Total Charge: 0.000000

Density mixing:
  Method: separate
  Backend: pulay
  Linear mixing parameter: 0.05
  Mixing with 5 old densities
  Damping of long wave oscillations: 50

Hamiltonian:
  XC and Coulomb potentials evaluated on a 90*96*350 grid
  Using the BEEF-vdW Exchange-Correlation functional
  External potential:
    NoExternalPotential

XC parameters: BEEF-vdW with 2 nearest neighbor stencil

Total number of cores used: 32
Parallelization over k-points: 8
Domain decomposition: 1 x 1 x 4
                      2 x 2 x 8 (xc only)

Number of atoms: 70
Number of atomic orbitals: 1018
Number of bands in calculation: 428
Number of valence electrons: 706
Bands to converge: occupied

... initialized

Initializing position-dependent things.

Density initialized from atomic densities
Creating initial wave functions:
  428 bands from LCAO basis set

            Cl    Cl    Cl

                Cl     Cl
        Cl Cu  ClCu  Cl Cu

         Cu    Cu    CCu    Cu
       Cu    Cu    Cu     Cu
              Cu    Cu
           Cu    CCu    Cu
         Cu    Cu    CCu    Cu

       Cu    CCu   CCu    Cu
           Cu    CCu   CCu

         Cu    Cu    CCu    Cu
             Cu     Cu    Cu
       Cu     Cu    Cu
           Cu Cl  CuCl  Cu Cl
            Cl
                   Cl
          Cl     Cl    Cl

Positions:
   0 Cu     1.851874    1.842086   10.044767    ( 0.0000,  0.0000,  0.0000)
   1 Cu     0.572048    0.518337   11.854739    ( 0.0000,  0.0000,  0.0000)
   2 Cu     3.208369    0.549454   11.826759    ( 0.0000,  0.0000,  0.0000)
   3 Cu     1.885044    1.836608   13.699605    ( 0.0000,  0.0000,  0.0000)
   4 Cu     0.579320    0.526826   15.560947    ( 0.0000,  0.0000,  0.0000)
   5 Cu     3.185437    0.522508   15.555968    ( 0.0000,  0.0000,  0.0000)
   6 Cu     1.901068    1.854575   17.424612    ( 0.0000,  0.0000,  0.0000)
   7 Cu     0.575906    0.561899   19.206760    ( 0.0000,  0.0000,  0.0000)
   8 Cu     3.188310    0.488633   19.210481    ( 0.0000,  0.0000,  0.0000)
   9 Cu     0.574574    3.144633   11.846476    ( 0.0000,  0.0000,  0.0000)
  10 Cu     0.575916    3.143785   15.552326    ( 0.0000,  0.0000,  0.0000)
  11 Cu     0.546349    3.145891   19.206137    ( 0.0000,  0.0000,  0.0000)
  12 Cu     7.147069    1.821677   10.043621    ( 0.0000,  0.0000,  0.0000)
  13 Cu     5.794000    0.540777   11.820405    ( 0.0000,  0.0000,  0.0000)
  14 Cu     7.114080    1.831917   13.694773    ( 0.0000,  0.0000,  0.0000)
  15 Cu     5.808982    0.523918   15.556714    ( 0.0000,  0.0000,  0.0000)
  16 Cu     7.113100    1.827061   17.396972    ( 0.0000,  0.0000,  0.0000)
  17 Cu     5.807880    0.526790   19.217827    ( 0.0000,  0.0000,  0.0000)
  18 Cu     4.494064    1.763231    9.932089    ( 0.0000,  0.0000,  0.0000)
  19 Cu     4.496146    4.525263    9.931071    ( 0.0000,  0.0000,  0.0000)
  20 Cu     3.207669    3.147945   11.830838    ( 0.0000,  0.0000,  0.0000)
  21 Cu     5.791432    3.139321   11.831411    ( 0.0000,  0.0000,  0.0000)
  22 Cu     4.501104    1.833097   13.705422    ( 0.0000,  0.0000,  0.0000)
  23 Cu     4.500286    4.451342   13.700374    ( 0.0000,  0.0000,  0.0000)
  24 Cu     3.191019    3.143173   15.550169    ( 0.0000,  0.0000,  0.0000)
  25 Cu     5.806714    3.142761   15.552225    ( 0.0000,  0.0000,  0.0000)
  26 Cu     4.483820    1.848780   17.430757    ( 0.0000,  0.0000,  0.0000)
  27 Cu     4.483576    4.446716   17.420218    ( 0.0000,  0.0000,  0.0000)
  28 Cu     3.195113    3.070202   19.320757    ( 0.0000,  0.0000,  0.0000)
  29 Cu     5.840799    3.127025   19.209886    ( 0.0000,  0.0000,  0.0000)
  30 Cu     1.850636    4.467419   10.041562    ( 0.0000,  0.0000,  0.0000)
  31 Cu     1.883456    7.067453   10.032493    ( 0.0000,  0.0000,  0.0000)
  32 Cu     0.578168    5.767618   11.853682    ( 0.0000,  0.0000,  0.0000)
  33 Cu     3.207330    5.746015   11.820678    ( 0.0000,  0.0000,  0.0000)
  34 Cu     1.884398    4.451712   13.698510    ( 0.0000,  0.0000,  0.0000)
  35 Cu     1.882140    7.070634   13.694193    ( 0.0000,  0.0000,  0.0000)
  36 Cu     0.577138    5.762455   15.555937    ( 0.0000,  0.0000,  0.0000)
  37 Cu     3.190200    5.761333   15.545038    ( 0.0000,  0.0000,  0.0000)
  38 Cu     1.899950    4.455283   17.419419    ( 0.0000,  0.0000,  0.0000)
  39 Cu     1.897387    7.053708   17.430112    ( 0.0000,  0.0000,  0.0000)
  40 Cu     0.544416    5.772752   19.207193    ( 0.0000,  0.0000,  0.0000)
  41 Cu     3.197353    5.832220   19.317966    ( 0.0000,  0.0000,  0.0000)
  42 Cu     7.144990    4.448863   10.045121    ( 0.0000,  0.0000,  0.0000)
  43 Cu     7.115261    7.033008   10.044024    ( 0.0000,  0.0000,  0.0000)
  44 Cu     5.790284    5.740371   11.826573    ( 0.0000,  0.0000,  0.0000)
  45 Cu     7.115409    4.450638   13.698320    ( 0.0000,  0.0000,  0.0000)
  46 Cu     7.111993    7.067752   13.689826    ( 0.0000,  0.0000,  0.0000)
  47 Cu     5.806194    5.757852   15.551058    ( 0.0000,  0.0000,  0.0000)
  48 Cu     7.116689    4.449777   17.404260    ( 0.0000,  0.0000,  0.0000)
  49 Cu     7.119110    7.076103   17.395949    ( 0.0000,  0.0000,  0.0000)
  50 Cu     5.839650    5.752596   19.206190    ( 0.0000,  0.0000,  0.0000)
  51 Cu     4.502840    7.106124   10.040718    ( 0.0000,  0.0000,  0.0000)
  52 Cu     4.505854    7.072213   13.694900    ( 0.0000,  0.0000,  0.0000)
  53 Cu     4.482985    7.045347   17.423899    ( 0.0000,  0.0000,  0.0000)
  54 Cl     3.111134    4.453599   21.202893    ( 0.0000,  0.0000,  0.0000)
  55 Cl     4.580310    3.143724    8.048163    ( 0.0000,  0.0000,  0.0000)
  56 Cl     1.867046    5.767436    8.237027    ( 0.0000,  0.0000,  0.0000)
  57 Cl     0.561128    1.853895   21.006449    ( 0.0000,  0.0000,  0.0000)
  58 Cl     5.840224    7.039810   21.008038    ( 0.0000,  0.0000,  0.0000)
  59 Cl     7.093286    0.367959    8.057112    ( 0.0000,  0.0000,  0.0000)
  60 Cl     7.130126    5.740935    8.244573    ( 0.0000,  0.0000,  0.0000)
  61 Cl     5.824339    1.826908   21.013856    ( 0.0000,  0.0000,  0.0000)
  62 Cl     0.561128    7.353895   21.006449    ( 0.0000,  0.0000,  0.0000)
  63 Cl     1.699919    0.405738    8.070012    ( 0.0000,  0.0000,  0.0000)
  64 Cl     4.498586    5.754186    8.240800    ( 0.0000,  0.0000,  0.0000)
  65 Cl     3.192734    1.840401   21.010153    ( 0.0000,  0.0000,  0.0000)
  66 Cl     5.832282    4.433359   21.010947    ( 0.0000,  0.0000,  0.0000)
  67 Cl     1.783482    3.086587    8.153520    ( 0.0000,  0.0000,  0.0000)
  68 Cl     4.396602    0.386848    8.063562    ( 0.0000,  0.0000,  0.0000)
  69 Cl     3.200676    7.196853   21.007243    ( 0.0000,  0.0000,  0.0000)

Unit cell:
[...]
          Cu    Cu    CCu   Cu
         Cu   CCu   CCu    Cu
                  Cl
             Cu    Cu    Cu  Cl
             Cl      Cl
               Cl
                        Cl
                       Cl

[...]

              Cl      Cl
                        Cl
                Cl
        Cl Cu     Cu    Cu
                   Cl
          Cu    CCu   CCu   Cu
        Cu    CCu   CCu    Cu

[...]

          Cu   CCu    CCu   Cu
         Cu   CCu   CCu   Cu
                  Cl
             Cu    Cu    Cu  Cl
             Cl      Cl
               Cl
                       Cl
                       Cl

[...]

              Cl       Cl
                         Cl
                Cl
        Cl  Cu    CuCl   Cu

           Cu   CCu   CuCu   Cu
         Cu   CCu    CCu    Cu

[...]

              Cl      Cl
                         Cl
                Cl
        Cl Cu     Cu    Cu
                   Cl
          Cu    CCu   CCu   Cu
         Cu   CCu   CCu    Cu

[...]

             CCl      Cl
                         Cl
                Cl
        Cl Cu     Cu    Cu
                   Cl
          Cu    CCu   CCu   Cu
         Cu   CCu   CCu    Cu

[...]

            CCu   CCu   CCu
          Cu    Cu    CCu   Cu

[...]

          Cu   CCu    CCu   Cu
         Cu   CCu   CCu   Cu
                  Cl
             Cu    Cu     Cu Cl
            Cl       Cl
               Cl
                       Cl
                       Cl

[...]

             CCl      Cl
                         Cl
                Cl
        Cl Cu     Cu    Cu
                   Cl
          Cu    CCu   CCu   Cu
        Cu    CCu   CCu    Cu

[...]

          Cu   CCu    CCu   Cu
         Cu   CCu   CCu   Cu
                  Cl
             Cu    Cu     Cu Cl
            Cl       Cl

               Cl       Cl
                       Cl

[...]

             CCl      Cl
                         Cl
               Cl
        Cl Cu     CCl   Cu
                       Cu
          Cu    CCu   Cu    Cu
        Cu    CCu   CCu    Cu

[...]

             CCl      Cl
                         Cl
               Cl
        Cl Cu     CCl   Cu
                       Cu
          Cu   CuCu   Cu    Cu
        Cu    CCu   CCu    Cu

            Cu    CCu   CCu
          Cu   CCu    CCu   Cu

[...]

          Cu   CCu    CCu   Cu
         Cu   CCu   CCu   Cu
                  Cl
             Cu    Cu    Cu  Cl
           Cl         Cl

[...]

             Cu   CCu    Cu  Cl
           Cl         Cl

[...]

             CCl      Cl
                          Cl
               Cl
        Cl Cu     CCl   Cu
                       Cu
          Cu   CuCu   Cu    Cu
        Cu    CCu   CCu    Cu

[...]

             CCl      Cl
                          Cl
               Cl
        Cl Cu     CCl   Cu
          Cu           Cu
               CuCu   Cu    Cu
        Cu    CCu   CCu    Cu

            Cu    CCu   CCu
          Cu    Cu    CCu   Cu

[...]

             Cu   CCu    Cu  Cl
           Cl         Cl

[...]

              Cl
             Cl       Cl
               Cl         Cl

        Cl Cu     CCl   Cu
          Cu   CuCu   CCu   Cu

[...]

        Cu    CCu   CCu    Cu
             Cu   CCu    Cu  Cl
                      Cl
           Cl
               Cl       Cl
                       Cl

[...]

              Cl
             Cl       Cl
                          Cl
               Cl
        Cl Cu     CCl   Cu
          Cu   CuCu   CCu   Cu

[...]

          Cu    Cu    CCu   Cu
        Cu    CCu   CCu    Cu

[...]

               Cl         Cl
        Cl Cu     CCl   Cu

          Cu   CuCu   CCu   Cu
        Cu    CCu   CCu    Cu

[...]

          Cu   CCu    CCu   Cu
        Cu    CCu   CCu
                           Cu
             Cu   CCu     Cu Cl
           Cl         Cl

[...]

     iter     time        total  log10-change:
                         energy  eigst   dens
iter:   1 04:52:21 -4670.742784  -2.51
iter:   2 04:53:14 -4670.723686  -3.34  -2.64
iter:   3 04:54:07 -4670.584292c -3.99  -2.66
iter:   4 04:55:00 -4670.564849c -4.40  -2.92
iter:   5 04:55:52 -4670.562327c -4.11  -3.09
iter:   6 04:56:45 -4670.558632c -4.46  -3.32
iter:   7 04:57:37 -4670.560300c -5.07  -3.52
iter:   8 04:58:29 -4670.558024c -4.88  -3.63
iter:   9 04:59:39 -4670.557655c -6.12  -3.85
iter:  10 05:00:36 -4670.557719c -6.26  -4.06c
iter:  11 05:01:31 -4670.557511c -6.18  -3.99
iter:  12 05:02:24 -4670.557505c -6.42  -4.17c
iter:  13 05:03:19 -4670.557496c -7.08  -4.35c
iter:  14 05:04:12 -4670.557508c -6.52  -4.46c
iter:  15 05:05:05 -4670.557502c -7.74c -4.66c

[...]

            Cu    CCu   CCu
          Cu   CCu    CCu   Cu

[...]

        Cu    CCu   CCu    Cu
            Cu    CCu   CCu

[...]

              Cl
             Cl       Cl
                          Cl
               Cl
        Cl Cu     CCl   Cu
          Cu   CuCu   CCu   Cu

[...]

          Cu   CCu    CCu   Cu
        Cu    CCu   CCu    Cu

[...]

        Cu    CCu   CCu    Cu
             Cu   CCu     Cu Cl
                      Cl
           Cl
               Cl       Cl
                       Cl

[...]

          Cu   CuCu   CCu    Cu
        Cu    CCu   CCu    Cu

[...]

        Cu    CCu   CCu    Cu
           CCu    CCu   CCu

[...]

             Cl
             Cl
                      Cl
               Cl        Cl
        Cl Cu     Cu    Cu
                  Cl
          Cu   CCu   CCu    Cu
        Cu    Cu    CCu   Cu

[...]

          Cu   CCu   CCu    Cu
        Cu    Cu    CCu
                          Cu
            Cu    Cu     Cu Cl
           Cl        Cl

[...]

               Cl         Cl
        Cl Cu     CCl   Cu

          Cu   CCu    CCu    Cu
        Cu    CCu   CuCu   Cu

           CCu    CCu   CuCu
          Cu   CCu    CCu    Cu

        Cu    CCu   CCu    Cu
           CCu    CCu    Cu

          Cu   CCu    CCu    Cu
        Cu    CCu   CCu
                           Cu
            Cu    CCu     Cu Cl
           Cl         Cl

[...]

             Cl
             Cl       Cl

               Cl        Cl
        Cl Cu    Cu     Cu
                  Cl
          Cu   CCu   CCu    Cu
        Cu    Cu    CCu   Cu

[...]

System changes: positions

Initializing position-dependent things.

Density initialized from wave functions

[...]

             Cl
             Cl
                      Cl
               Cl        Cl
        Cl Cu    Cu     Cu
                  Cl
          Cu   CCu   CCu    Cu
        Cu    Cu    CCu   Cu

           CCu   CCu    CCu
          Cu   CCu   CCu    Cu

        Cu    Cu    CCu   Cu
           CCu   CCu    CCu

          Cu   CCu   CCu    Cu
        Cu    Cu    CCu
                          Cu
            Cu    Cu     Cu Cl
           Cl        Cl

              Cl       Cl
                       Cl

         Cl

Positions:
   0 Cu     1.873255    1.829461   10.076834    ( 0.0000,  0.0000,  0.0000)
   1 Cu     0.538232    0.529126   11.839293    ( 0.0000,  0.0000,  0.0000)
   2 Cu     3.198388    0.513454   11.865204    ( 0.0000,  0.0000,  0.0000)
   3 Cu     1.867426    1.833181   13.689589    ( 0.0000,  0.0000,  0.0000)
   4 Cu     0.562138    0.523031   15.526788    ( 0.0000,  0.0000,  0.0000)
   5 Cu     3.182915    0.525460   15.529073    ( 0.0000,  0.0000,  0.0000)
   6 Cu     1.862373    1.835782   17.371815    ( 0.0000,  0.0000,  0.0000)
   7 Cu     0.556569    0.540390   19.284402    ( 0.0000,  0.0000,  0.0000)
   8 Cu     3.192507    0.517542   19.199963    ( 0.0000,  0.0000,  0.0000)
   9 Cu     0.541950    3.148468   11.819117    ( 0.0000,  0.0000,  0.0000)
  10 Cu     0.565941    3.141205   15.536578    ( 0.0000,  0.0000,  0.0000)
  11 Cu     0.590792    3.140854   19.338947    ( 0.0000,  0.0000,  0.0000)
  12 Cu     7.131818    1.825488    9.838408    ( 0.0000,  0.0000,  0.0000)
  13 Cu     5.818803    0.516313   11.812424    ( 0.0000,  0.0000,  0.0000)
  14 Cu     7.110735    1.834029   13.690191    ( 0.0000,  0.0000,  0.0000)
  15 Cu     5.810236    0.523087   15.532877    ( 0.0000,  0.0000,  0.0000)
  16 Cu     7.125752    1.822516   17.410821    ( 0.0000,  0.0000,  0.0000)
  17 Cu     5.834920    0.505628   19.303029    ( 0.0000,  0.0000,  0.0000)
  18 Cu     4.486657    1.813020   10.013377    ( 0.0000,  0.0000,  0.0000)
  19 Cu     4.490444    4.450872   10.087504    ( 0.0000,  0.0000,  0.0000)
  20 Cu     3.178894    3.145219   11.886037    ( 0.0000,  0.0000,  0.0000)
  21 Cu     5.822907    3.123386   11.827738    ( 0.0000,  0.0000,  0.0000)
  22 Cu     4.506779    1.829302   13.694480    ( 0.0000,  0.0000,  0.0000)
  23 Cu     4.490687    4.449402   13.694914    ( 0.0000,  0.0000,  0.0000)
  24 Cu     3.179242    3.140916   15.528915    ( 0.0000,  0.0000,  0.0000)
  25 Cu     5.813378    3.135231   15.540305    ( 0.0000,  0.0000,  0.0000)
  26 Cu     4.515125    1.813081   17.370286    ( 0.0000,  0.0000,  0.0000)
  27 Cu     4.486635    4.446329   17.340785    ( 0.0000,  0.0000,  0.0000)
  28 Cu     3.188548    3.134670   19.142540    ( 0.0000,  0.0000,  0.0000)
  29 Cu     5.805139    3.120934   19.224640    ( 0.0000,  0.0000,  0.0000)
  30 Cu     1.874630    4.464124    9.987835    ( 0.0000,  0.0000,  0.0000)
  31 Cu     1.846643    7.086968    9.898127    ( 0.0000,  0.0000,  0.0000)
  32 Cu     0.557106    5.765893   11.812120    ( 0.0000,  0.0000,  0.0000)
  33 Cu     3.157674    5.776014   11.851232    ( 0.0000,  0.0000,  0.0000)
  34 Cu     1.856154    4.452725   13.688247    ( 0.0000,  0.0000,  0.0000)
  35 Cu     1.864131    7.065375   13.694979    ( 0.0000,  0.0000,  0.0000)
  36 Cu     0.561591    5.755009   15.535870    ( 0.0000,  0.0000,  0.0000)
  37 Cu     3.165428    5.761442   15.530520    ( 0.0000,  0.0000,  0.0000)
  38 Cu     1.850644    4.461757   17.400298    ( 0.0000,  0.0000,  0.0000)
  39 Cu     1.860706    7.071143   17.414355    ( 0.0000,  0.0000,  0.0000)
  40 Cu     0.533079    5.759530   19.346837    ( 0.0000,  0.0000,  0.0000)
  41 Cu     3.174170    5.774115   19.235196    ( 0.0000,  0.0000,  0.0000)
  42 Cu     7.092308    4.449724    9.908235    ( 0.0000,  0.0000,  0.0000)
  43 Cu     7.124682    7.055558    9.959100    ( 0.0000,  0.0000,  0.0000)
  44 Cu     5.813257    5.751593   11.858111    ( 0.0000,  0.0000,  0.0000)
  45 Cu     7.105986    4.445190   13.691088    ( 0.0000,  0.0000,  0.0000)
  46 Cu     7.113343    7.064743   13.698822    ( 0.0000,  0.0000,  0.0000)
  47 Cu     5.798785    5.756688   15.533591    ( 0.0000,  0.0000,  0.0000)
  48 Cu     7.129575    4.439725   17.400464    ( 0.0000,  0.0000,  0.0000)
  49 Cu     7.126756    7.060761   17.374783    ( 0.0000,  0.0000,  0.0000)
  50 Cu     5.787566    5.758047   19.142756    ( 0.0000,  0.0000,  0.0000)
  51 Cu     4.487433    7.068632   10.024690    ( 0.0000,  0.0000,  0.0000)
  52 Cu     4.487373    7.066039   13.690057    ( 0.0000,  0.0000,  0.0000)
  53 Cu     4.469060    7.076230   17.367204    ( 0.0000,  0.0000,  0.0000)
  54 Cl     2.332062    4.379663   20.916191    ( 0.0000,  0.0000,  0.0000)
  55 Cl     5.380885    3.185904    8.335545    ( 0.0000,  0.0000,  0.0000)
  56 Cl     3.344902    5.695961    8.412362    ( 0.0000,  0.0000,  0.0000)
  57 Cl     0.269186    1.787907   21.201618    ( 0.0000,  0.0000,  0.0000)
  58 Cl     6.450186    7.830993   24.318643    ( 0.0000,  0.0000,  0.0000)
  59 Cl     6.905574    0.473498    7.955297    ( 0.0000,  0.0000,  0.0000)
  60 Cl     7.424988    5.797519    8.051928    ( 0.0000,  0.0000,  0.0000)
  61 Cl     4.359687    1.878994   20.807418    ( 0.0000,  0.0000,  0.0000)
  62 Cl     0.807005    7.095697   21.225637    ( 0.0000,  0.0000,  0.0000)
  63 Cl     1.285658   -0.124584    4.929268    ( 0.0000,  0.0000,  0.0000)
  64 Cl     5.157272    6.152484    4.953177    ( 0.0000,  0.0000,  0.0000)
  65 Cl     2.530611    1.514359   24.371227    ( 0.0000,  0.0000,  0.0000)
  66 Cl     6.607839    4.512762   20.922422    ( 0.0000,  0.0000,  0.0000)
  67 Cl     1.097571    3.073338    8.277408    ( 0.0000,  0.0000,  0.0000)
  68 Cl     3.079592    0.558587    8.423891    ( 0.0000,  0.0000,  0.0000)
  69 Cl     4.612156    7.027374   20.810642    ( 0.0000,  0.0000,  0.0000)

Unit cell:
           periodic     x           y           z      points  spacing
  1. axis:    yes    7.851007    0.000000    0.000000    45     0.1655
  2. axis:    yes    2.617002    7.851007    0.000000    48     0.1636
  3. axis:    yes    0.000000    0.000000   30.683867   175     0.1753

  Lengths:   7.851007   8.275688  30.683867
  Angles:   90.000000  90.000000  71.565053

Effective grid spacing dv^(1/3) = 0.1710

     iter     time        total  log10-change:
                         energy  eigst   dens
iter:   1 06:45:05 -4670.577336  -3.16
iter:   2 06:45:58 -4670.576132  -4.42  -3.22
iter:   3 06:46:56 -4670.574938c -5.17  -3.34
iter:   4 06:47:48 -4670.578162c -4.82  -3.42
iter:   5 06:48:40 -4670.573703c -5.14  -3.35
iter:   6 06:49:35 -4670.573325c -5.09  -3.65
iter:   7 06:50:28 -4670.573305c -6.18  -3.91
iter:   8 06:51:22 -4670.573048c -5.84  -4.02c
iter:   9 06:52:26 -4670.573017c -6.88  -4.30c
iter:  10 06:53:21 -4670.572921c -6.67  -4.36c
iter:  11 06:54:27 -4670.572921c -7.30  -4.53c
iter:  12 06:55:28 -4670.572927c -7.55c -4.62c

Converged after 12 iterations.

Dipole moment: (-9.523174, -27.883311, -0.001014) |e|*Ang

Energy contributions relative to reference atoms: (reference = -2632037.589752)

Kinetic:       +561.799391
Potential:     -581.417052
External:        +0.000000
XC:            -4649.952983
Entropy (-ST):   -0.594643
Local:           -0.704961
Free energy:   -4670.870249
Extrapolated:  -4670.572927

Showing only first 2 kpts
 Kpt  Band  Eigenvalues  Occupancy
  0   351     -0.20655    1.84919
  0   352     -0.13128    1.70485
  0   353     -0.08394    1.56504
  0   354     -0.01101    1.26875

  1   351     -0.12643    1.69244
  1   352      0.09789    0.73733
  1   353      0.13681    0.56701
  1   354      0.20158    0.34307

Fermi level: 0.04410

No gap

Forces in eV/Ang:
  0 Cu    0.00143    0.00093   -0.00484
  1 Cu   -0.00024    0.00120    0.00104
  2 Cu   -0.00862   -0.00583   -0.01995
  3 Cu   -0.00118   -0.00926   -0.00112
  4 Cu   -0.01521   -0.00392    0.01450
  5 Cu    0.00547   -0.00611    0.01159
  6 Cu   -0.01155    0.00021    0.00559
  7 Cu   -0.01480   -0.00450   -0.00773
  8 Cu   -0.00550    0.00372    0.02080
  9 Cu   -0.00753   -0.00099   -0.00312
 10 Cu   -0.00391    0.00354   -0.00908
 11 Cu   -0.01399   -0.00161    0.01769
 12 Cu   -0.00984    0.00368    0.01342
 13 Cu   -0.00637    0.00275   -0.00730
 14 Cu   -0.00612   -0.00065    0.00237
 15 Cu    0.00358   -0.00211    0.00588
 16 Cu   -0.00122    0.00533    0.00718
 17 Cu   -0.00138    0.00181   -0.00442
 18 Cu    0.00286   -0.00661   -0.00786
 19 Cu   -0.00503   -0.01014    0.00667
 20 Cu    0.00116   -0.01126   -0.00414
 21 Cu    0.00998    0.00654   -0.00056
 22 Cu   -0.00655   -0.00602   -0.00761
 23 Cu    0.00611    0.00245    0.01044
 24 Cu   -0.00450   -0.00965   -0.00599
 25 Cu   -0.00795    0.00177   -0.00603
 26 Cu   -0.00347    0.00923    0.00304
 27 Cu    0.00196    0.00807    0.00499
 28 Cu   -0.00002    0.00973    0.00093
 29 Cu   -0.00441   -0.01133    0.00332
 30 Cu   -0.00435    0.01545   -0.00177
 31 Cu   -0.01451   -0.00532    0.01500
 32 Cu    0.00298   -0.00379    0.00505
 33 Cu    0.00125   -0.00423   -0.00878
 34 Cu    0.01376    0.00726   -0.00465
 35 Cu   -0.00249    0.00520   -0.01477
 36 Cu    0.00621   -0.00613    0.00592
 37 Cu    0.00519   -0.00014    0.00751
 38 Cu   -0.00621   -0.00724    0.00476
 39 Cu    0.00040   -0.00116   -0.00039
 40 Cu    0.01459   -0.00037    0.01258
 41 Cu    0.00006    0.01450   -0.00926
 42 Cu    0.00914   -0.00484   -0.01758
 43 Cu    0.00497   -0.00634    0.00078
 44 Cu    0.01038    0.00567    0.00247
 45 Cu    0.00918    0.00234    0.00224
 46 Cu    0.01149    0.00688   -0.01332
 47 Cu    0.00947    0.00873    0.00164
 48 Cu    0.00095   -0.00848    0.00828
 49 Cu    0.00789    0.00021    0.00517
 50 Cu    0.00275    0.00076   -0.00281
 51 Cu    0.00254    0.00032   -0.01189
 52 Cu   -0.00548   -0.00161    0.00273
 53 Cu    0.00790    0.00947    0.01055
 54 Cl    0.00285    0.00488   -0.00432
 55 Cl   -0.00834   -0.00031   -0.00776
 56 Cl    0.00000   -0.00314   -0.01697
 57 Cl    0.00126    0.00522   -0.00342
 58 Cl    0.00135   -0.00069   -0.02340
 59 Cl    0.00731    0.01700    0.01552
 60 Cl    0.01178   -0.00684   -0.00944
 61 Cl   -0.00660   -0.00027    0.01442
 62 Cl   -0.00120   -0.00415    0.00657
 63 Cl    0.00014    0.00291   -0.00286
 64 Cl    0.00251    0.00556    0.00448
 65 Cl    0.00084   -0.00611   -0.00519
 66 Cl    0.01937   -0.00818    0.01066
 67 Cl   -0.01677    0.00308   -0.00983
 68 Cl    0.00147    0.00858   -0.02799
 69 Cl    0.00335   -0.00697    0.02170