User:   thorkong@node034.cluster
Date:   Mon Oct 17 14:30:17 2022
Arch:   x86_64
Pid:    31674
Python: 3.10.5
gpaw:   /groups/kemi/thorkong/miniconda3/envs/gpaw22/lib/python3.10/site-packages/gpaw
_gpaw:  /groups/kemi/thorkong/miniconda3/envs/gpaw22/lib/python3.10/site-packages/
        _gpaw.cpython-310-x86_64-linux-gnu.so
ase:    /groups/kemi/thorkong/miniconda3/envs/gpaw22/lib/python3.10/site-packages/ase (version 3.22.1)
numpy:  /groups/kemi/thorkong/miniconda3/envs/gpaw22/lib/python3.10/site-packages/numpy (version 1.23.0)
scipy:  /groups/kemi/thorkong/miniconda3/envs/gpaw22/lib/python3.10/site-packages/scipy (version 1.8.1)
units:  Angstrom and eV
cores: 32
OpenMP: True
OMP_NUM_THREADS: 1

Input parameters:
  basis: dzp
  kpts: [4 4 1]
  mode: {ecut: 600.0,
         name: pw}
  xc: BEEF-vdW

System changes: positions, numbers, cell, pbc, initial_charges, initial_magmoms

Initialize ...

Cu-setup:
  name: Copper
  id: f1c4d45d90492f1bbfdcb091e8418fdf
  Z: 29.0
  valence: 11
  core: 18
  charge: 0.0
  file: /groups/kemi/thorkong/miniconda3/envs/gpaw22/share/gpaw/Cu.PBE.gz
  compensation charges: gauss, rc=0.33, lmax=2
  cutoffs: 2.06(filt), 2.43(core),
  valence states:
                energy  radius
    4s(1.00)    -4.609   1.164
    4p(0.00)    -0.698   1.164
    3d(10.00)    -5.039   1.058
    *s          22.603   1.164
    *p          26.513   1.164
    *d          22.172   1.058

  LCAO basis set for Cu:
    Name: dzp
    File: /groups/kemi/thorkong/miniconda3/envs/gpaw22/share/gpaw/Cu.dzp.basis.gz
    Number of radial functions: 5
    Number of spherical harmonics: 15
      l=0, rc=8.9688 Bohr: 4s-sz confined orbital
      l=2, rc=5.1719 Bohr: 3d-sz confined orbital
      l=0, rc=5.3281 Bohr: 4s-dz split-valence wave
      l=2, rc=3.1406 Bohr: 3d-dz split-valence wave
      l=1, rc=8.9688 Bohr: p-type Gaussian polarization

Cl-setup:
  name: Chlorine
  id: 726897f06f34e53cf8e33b5885a02604
  Z: 17.0
  valence: 7
  core: 10
  charge: 0.0
  file: /groups/kemi/thorkong/miniconda3/envs/gpaw22/share/gpaw/Cl.PBE.gz
  compensation charges: gauss, rc=0.25, lmax=2
  cutoffs: 1.40(filt), 1.49(core),
  valence states:
                energy  radius
    3s(2.00)   -20.689   0.794
    3p(5.00)    -8.594   0.794
    *s           6.523   0.794
    *p          18.617   0.794
    *d           0.000   0.794

  LCAO basis set for Cl:
    Name: dzp
    File: /groups/kemi/thorkong/miniconda3/envs/gpaw22/share/gpaw/Cl.dzp.basis.gz
    Number of radial functions: 5
    Number of spherical harmonics: 13
      l=0, rc=5.1719 Bohr: 3s-sz confined orbital
      l=1, rc=6.2656 Bohr: 3p-sz confined orbital
      l=0, rc=2.8281 Bohr: 3s-dz split-valence wave
      l=1, rc=3.5156 Bohr: 3p-dz split-valence wave
      l=2, rc=6.2656 Bohr: d-type Gaussian polarization

Reference energy: -2456268.298212

Spin-paired calculation

Convergence criteria:
 Maximum [total energy] change in last 3 cyles: 0.0005 eV / electron
 Maximum integral of absolute [dens]ity change: 0.0001 electrons / valence electron
 Maximum integral of absolute [eigenst]ate change: 4e-08 eV^2 / valence electron
 Maximum number of scf [iter]ations: 333
 (Square brackets indicate name in SCF output, whereas a 'c' in
 the SCF output indicates the quantity has converged.)

Symmetries present (total): 1

  ( 1  0  0)
  ( 0  1  0)
  ( 0  0  1)

16 k-points: 4 x 4 x 1 Monkhorst-Pack grid
8 k-points in the irreducible part of the Brillouin zone
       k-points in crystal coordinates                weights
   0:     0.12500000   -0.37500000    0.00000000          2/16
   1:     0.12500000   -0.12500000    0.00000000          2/16
   2:     0.12500000    0.12500000    0.00000000          2/16
   3:     0.12500000    0.37500000    0.00000000          2/16
   4:     0.37500000   -0.37500000    0.00000000          2/16
   5:     0.37500000   -0.12500000    0.00000000          2/16
   6:     0.37500000    0.12500000    0.00000000          2/16
   7:     0.37500000    0.37500000    0.00000000          2/16

Wave functions: Plane wave expansion
  Cutoff energy: 600.000 eV
  Number of coefficients (min, max): 54614, 54705
  Pulay-stress correction: 0.000000 eV/Ang^3 (de/decut=0.000000)
  Using FFTW library
  ScaLapack parameters: grid=2x2, blocksize=64
  Wavefunction extrapolation:
    Improved wavefunction reuse through dual PAW basis

Occupation numbers: Fermi-Dirac: width=0.1000 eV

Eigensolver
   Davidson(niter=2)

Densities:
  Coarse grid: 45*45*175 grid
  Fine grid: 90*90*350 grid
  Total Charge: 0.000000

Density mixing:
  Method: separate
  Backend: pulay
  Linear mixing parameter: 0.05
  Mixing with 5 old densities
  Damping of long wave oscillations: 50

Hamiltonian:
  XC and Coulomb potentials evaluated on a 90*90*350 grid
  Using the BEEF-vdW Exchange-Correlation functional
  External potential:
    NoExternalPotential

XC parameters: BEEF-vdW with 2 nearest neighbor stencil

Total number of cores used: 32
Parallelization over k-points: 8
Domain decomposition: 1 x 1 x 4
                      2 x 2 x 8 (xc only)

Number of atoms: 56
Number of atomic orbitals: 836
Number of bands in calculation: 369
Number of valence electrons: 608
Bands to converge: occupied

... initialized

Initializing position-dependent things.

Density initialized from atomic densities
Creating initial wave functions:
  369 bands from LCAO basis set

                        CCl   Cu     Cu
                   Cu     Cu    Cu

               Cu   CCu    CCu   Cu

                Cu    Cu    Cu
           Cu   CCu    CCu   Cu

            Cu    Cu    CCu   Cu     Cu
       Cu     Cu   CCu    Cu    Cu

               Cu   CCu    CCu   Cu
                Cu    Cu    Cu

[...]

            Cu    Cu     Cu
       Cu     Cu   CCu

Positions:
   0 Cu     2.892070    0.001171   10.020850    ( 0.0000,  0.0000,  0.0000)
   1 Cu     4.169996    2.247710    9.962199    ( 0.0000,  0.0000,  0.0000)
   2 Cu     0.279952    0.001804   10.022098    ( 0.0000,  0.0000,  0.0000)
   3 Cu     1.585462    2.264297   10.020848    ( 0.0000,  0.0000,  0.0000)
   4 Cu     2.913350    3.017946   12.117167    ( 0.0000,  0.0000,  0.0000)
   5 Cu     1.586943    0.756403   12.142658    ( 0.0000,  0.0000,  0.0000)
   6 Cu     5.513170    3.023206   12.124921    ( 0.0000,  0.0000,  0.0000)
   7 Cu     4.208705    0.774324   12.117167    ( 0.0000,  0.0000,  0.0000)
   8 Cu     5.513591    1.509238   14.272783    ( 0.0000,  0.0000,  0.0000)
   9 Cu     6.823043    3.779464   14.274281    ( 0.0000,  0.0000,  0.0000)
  10 Cu     2.891325    1.509485   14.270251    ( 0.0000,  0.0000,  0.0000)
  11 Cu     4.202245    3.780557   14.272783    ( 0.0000,  0.0000,  0.0000)
  12 Cu     2.896092   -0.004925   16.428932    ( 0.0000,  0.0000,  0.0000)
  13 Cu     4.198671    2.264280   16.409235    ( 0.0000,  0.0000,  0.0000)
  14 Cu     0.270492   -0.003655   16.427922    ( 0.0000,  0.0000,  0.0000)
  15 Cu     1.582192    2.270818   16.428931    ( 0.0000,  0.0000,  0.0000)
  16 Cu     2.908684    3.026262   18.564979    ( 0.0000,  0.0000,  0.0000)
  17 Cu     1.582571    0.753873   18.536173    ( 0.0000,  0.0000,  0.0000)
  18 Cu     5.508528    3.020522   18.558707    ( 0.0000,  0.0000,  0.0000)
  19 Cu     4.213572    0.766128   18.564978    ( 0.0000,  0.0000,  0.0000)
  20 Cu     5.510454    1.470120   20.719073    ( 0.0000,  0.0000,  0.0000)
  21 Cu     6.851715    3.796006   20.721591    ( 0.0000,  0.0000,  0.0000)
  22 Cu     2.870756    1.497603   20.658336    ( 0.0000,  0.0000,  0.0000)
  23 Cu     4.166831    3.797368   20.719072    ( 0.0000,  0.0000,  0.0000)
  24 Cu     5.511281    4.573648    9.964724    ( 0.0000,  0.0000,  0.0000)
  25 Cu     2.872642    4.546957   10.024891    ( 0.0000,  0.0000,  0.0000)
  26 Cu     4.217762    5.278051   12.118338    ( 0.0000,  0.0000,  0.0000)
  27 Cu     6.808142    5.277634   12.118722    ( 0.0000,  0.0000,  0.0000)
  28 Cu     8.125635    6.048665   14.254724    ( 0.0000,  0.0000,  0.0000)
  29 Cu     5.512876    6.048846   14.270796    ( 0.0000,  0.0000,  0.0000)
  30 Cu     5.508121    4.534502   16.410731    ( 0.0000,  0.0000,  0.0000)
  31 Cu     2.888425    4.533601   16.412844    ( 0.0000,  0.0000,  0.0000)
  32 Cu     4.203491    5.269781   18.565365    ( 0.0000,  0.0000,  0.0000)
  33 Cu     6.812972    5.269389   18.566529    ( 0.0000,  0.0000,  0.0000)
  34 Cu     8.129607    6.042573   20.662768    ( 0.0000,  0.0000,  0.0000)
  35 Cu     5.509185    6.069218   20.658759    ( 0.0000,  0.0000,  0.0000)
  36 Cu     5.512517   -0.025470   10.024891    ( 0.0000,  0.0000,  0.0000)
  37 Cu     6.854955    2.246328    9.964731    ( 0.0000,  0.0000,  0.0000)
  38 Cu     8.113051    3.017471   12.118724    ( 0.0000,  0.0000,  0.0000)
  39 Cu     6.818223    0.773922   12.118340    ( 0.0000,  0.0000,  0.0000)
  40 Cu     8.133301    1.510134   14.270799    ( 0.0000,  0.0000,  0.0000)
  41 Cu     9.439526    3.772941   14.254724    ( 0.0000,  0.0000,  0.0000)
  42 Cu     5.508837   -0.005088   16.412842    ( 0.0000,  0.0000,  0.0000)
  43 Cu     6.819465    2.263186   16.410731    ( 0.0000,  0.0000,  0.0000)
  44 Cu     8.108336    3.025771   18.566528    ( 0.0000,  0.0000,  0.0000)
  45 Cu     6.803933    0.765694   18.565362    ( 0.0000,  0.0000,  0.0000)
  46 Cu     8.149112    1.496737   20.658757    ( 0.0000,  0.0000,  0.0000)
  47 Cu     9.436245    3.779424   20.662769    ( 0.0000,  0.0000,  0.0000)
  48 Cu     8.150960    4.546132   10.025314    ( 0.0000,  0.0000,  0.0000)
  49 Cu     9.439122    5.289856   12.147451    ( 0.0000,  0.0000,  0.0000)
  50 Cu    10.751202    6.047386   14.255724    ( 0.0000,  0.0000,  0.0000)
  51 Cu     8.130371    4.534249   16.413375    ( 0.0000,  0.0000,  0.0000)
  52 Cu     9.434738    5.287328   18.540974    ( 0.0000,  0.0000,  0.0000)
  53 Cu    10.741737    6.041911   20.661523    ( 0.0000,  0.0000,  0.0000)
  54 Cl     6.910979    2.221882   22.628867    ( 0.0000,  0.0000,  0.0000)
  55 Cl     4.185900    3.695939    8.051916    ( 0.0000,  0.0000,  0.0000)

Unit cell:
           periodic     x           y           z      points  spacing
  1. axis:    yes    7.851007    0.000000    0.000000    45     0.1511
  2. axis:    yes    3.925503    6.799171    0.000000    45     0.1511
  3. axis:    yes    0.000000    0.000000   30.683867   175     0.1753

  Lengths:   7.851007   7.851006  30.683867
  Angles:   90.000000  90.000000  60.000001

Effective grid spacing dv^(1/3) = 0.1666

     iter     time        total  log10-change:
                         energy  eigst   dens
iter:   1 14:34:54 -4204.429772
iter:   2 14:35:39 -4188.565925  -1.01  -1.16
iter:   3 14:36:25 -4180.307363  -1.14  -1.25
iter:   4 14:37:11 -4167.874363  -1.17  -1.32
iter:   5 14:37:55 -4164.639371  -1.79  -1.56
iter:   6 14:38:33 -4166.967731  -2.03  -1.71
iter:   7 14:39:19 -4172.364994  -1.76  -1.70
iter:   8 14:40:07 -4167.138852  -1.27  -1.70
iter:   9 14:40:54 -4162.630885  -2.26  -1.89
iter:  10 14:41:40 -4162.435187  -3.04  -2.37
iter:  11 14:42:26 -4162.403632c -2.75  -2.54
iter:  12 14:43:14 -4162.355796c -3.92  -2.79
iter:  13 14:44:01 -4162.326459c -4.02  -2.95
iter:  14 14:44:48 -4162.324034c -4.29  -3.03
iter:  15 14:45:34 -4162.324769c -4.75  -3.07
iter:  16 14:46:22 -4162.321220c -4.77  -3.10
iter:  17 14:47:09 -4162.320825c -5.40  -3.16
iter:  18 14:47:56 -4162.317660c -4.84  -3.20
iter:  19 14:48:42 -4162.317386c -6.01  -3.69
iter:  20 14:49:30 -4162.317015c -5.81  -3.75
iter:  21 14:50:17 -4162.316995c -6.31  -3.89
iter:  22 14:51:03 -4162.316811c -6.39  -3.97
iter:  23 14:51:50 -4162.316801c -7.10  -4.30c
iter:  24 14:52:37 -4162.316811c -7.20  -4.40c
iter:  25 14:53:25 -4162.316824c -7.51c -4.51c

Converged after 25 iterations.

Dipole moment: (-6.389342, 2.039891, 0.002785) |e|*Ang

Energy contributions relative to reference atoms: (reference = -2456268.298212)

Kinetic:       +390.779721
Potential:     -435.891588
External:        +0.000000
XC:            -4116.159964
Entropy (-ST):   -0.539410
Local:           -0.775288
Free energy:   -4162.586529
Extrapolated:  -4162.316824

Showing only first 2 kpts
 Kpt  Band  Eigenvalues  Occupancy
  0   302      0.10030    1.15464
  0   303      0.17922    0.76575
  0   304      0.23974    0.50601
  0   305      0.42228    0.10352

  1   302     -0.47205    1.99523
  1   303     -0.25325    1.95822
  1   304     -0.14371    1.88004
  1   305      0.12123    1.05122

Fermi level: 0.13148

No gap

Forces in eV/Ang:
  0 Cu   -0.00034   -0.01032    0.01135
  1 Cu    0.21879   -0.22718    0.04177
  2 Cu   -0.00809    0.17092    0.02135
  3 Cu   -0.16514   -0.08298    0.03949
  4 Cu   -0.06345    0.02161    0.08987
  5 Cu    0.01596    0.00331   -0.01844
  6 Cu   -0.02634    0.01291   -0.10062
  7 Cu   -0.01503    0.04697   -0.03256
  8 Cu   -0.00872    0.01004   -0.01326
  9 Cu   -0.00299   -0.00026   -0.01553
 10 Cu    0.02797    0.00316    0.02699
 11 Cu    0.00507   -0.01013   -0.00680
 12 Cu    0.00626    0.00021    0.03490
 13 Cu    0.00125    0.00029    0.01956
 14 Cu   -0.00053    0.00049   -0.06734
 15 Cu    0.00044   -0.00794   -0.06724
 16 Cu   -0.09590   -0.04710   -0.06296
 17 Cu   -0.09901    0.05759    0.08358
 18 Cu    0.02879   -0.01796    0.10536
 19 Cu    0.03465    0.00319    0.01197
 20 Cu   -0.25893    0.12555    0.02143
 21 Cu   -0.22939    0.16955    0.00229
 22 Cu    0.17251    0.09338    0.01069
 23 Cu    0.07650   -0.04543   -0.17241
 24 Cu    0.24405   -0.11063   -0.02690
 25 Cu   -0.09455    0.06732   -0.13954
 26 Cu   -0.05599    0.03634    0.08287
 27 Cu   -0.03241   -0.00524   -0.01370
 28 Cu   -0.00851    0.00124   -0.03298
 29 Cu    0.00975   -0.01252    0.02402
 30 Cu    0.00743   -0.00878    0.01824
 31 Cu    0.01409   -0.00726    0.00830
 32 Cu   -0.00688    0.10347   -0.05441
 33 Cu    0.01569   -0.04003    0.02196
 34 Cu   -0.01012   -0.00134   -0.00870
 35 Cu    0.00744   -0.20130    0.00156
 36 Cu    0.00834    0.17357   -0.00437
 37 Cu   -0.05769    0.04055    0.17845
 38 Cu    0.09015    0.04693    0.05681
 39 Cu    0.00129   -0.09530    0.05375
 40 Cu   -0.01400    0.00719   -0.00943
 41 Cu    0.00105    0.00673    0.06409
 42 Cu   -0.00881    0.01305   -0.02551
 43 Cu   -0.00528    0.00910    0.00699
 44 Cu    0.06754   -0.02847   -0.09227
 45 Cu    0.05987   -0.04010   -0.09276
 46 Cu    0.13931   -0.08134    0.10834
 47 Cu    0.16019    0.09262   -0.04274
 48 Cu   -0.15565   -0.09238   -0.01960
 49 Cu    0.08987   -0.05385   -0.07475
 50 Cu    0.00158   -0.00037    0.06379
 51 Cu   -0.02693   -0.00316   -0.02371
 52 Cu   -0.01223   -0.00053    0.02201
 53 Cu    0.00307   -0.19170   -0.03604
 54 Cl   -0.07430    0.03658   -0.00861
 55 Cl    0.02561    0.06973   -0.00005

System changes: positions

[...]

Density initialized from wave functions

[...]

               Cu   CCu    CCu   Cu
                      Cu
               Cu           Cu
           Cu   CCu    CCu   Cu

[...]

               Cu   CCu    CCu   Cu
                Cu           Cu
                      Cu
           Cu   CCu    CCu   Cu

[...]

               Cu   CCu    CCu   Cu
                Cu           Cu
                      Cu
           Cu   CCu    CCu   Cu

[...]

               Cu   CCu    CCu   Cu
                      Cu
               Cu           Cu
           Cu   CCu    CCu   Cu

[...]

System changes: positions

Initializing position-dependent things.

Density initialized from wave functions

                        CCl   Cu     Cu
                   Cu     Cu    Cu

[...]

               Cu     Cu    Cu
           Cu   CCu    CCu   Cu

            Cu    Cu    CCu   Cu     Cu
       Cu     Cu   CCu    Cu    Cu

               Cu   CCu    CCu   Cu
                Cu    Cu     Cu

           Cu   CCu    CCu   Cu

            Cu    Cu     Cu
       Cu     Cu   CCu

Positions:
   0 Cu     2.890925   -0.003577   10.026175    ( 0.0000,  0.0000,  0.0000)
   1 Cu     4.203816    2.208267    9.971692    ( 0.0000,  0.0000,  0.0000)
   2 Cu     0.279301    0.023806   10.043708    ( 0.0000,  0.0000,  0.0000)
   3 Cu     1.564250    2.251669   10.047209    ( 0.0000,  0.0000,  0.0000)
   4 Cu     2.906123    3.026691   12.124172    ( 0.0000,  0.0000,  0.0000)
   5 Cu     1.592756    0.754601   12.153973    ( 0.0000,  0.0000,  0.0000)
   6 Cu     5.503127    3.029751   12.123816    ( 0.0000,  0.0000,  0.0000)
   7 Cu     4.206225    0.779614   12.117735    ( 0.0000,  0.0000,  0.0000)
   8 Cu     5.510361    1.513391   14.272987    ( 0.0000,  0.0000,  0.0000)
   9 Cu     6.819327    3.780635   14.274143    ( 0.0000,  0.0000,  0.0000)
  10 Cu     2.898404    1.507867   14.279196    ( 0.0000,  0.0000,  0.0000)
  11 Cu     4.204361    3.779660   14.274045    ( 0.0000,  0.0000,  0.0000)
  12 Cu     2.895583   -0.004516   16.449369    ( 0.0000,  0.0000,  0.0000)
  13 Cu     4.202088    2.263183   16.411890    ( 0.0000,  0.0000,  0.0000)
  14 Cu     0.273223    0.001333   16.411409    ( 0.0000,  0.0000,  0.0000)
  15 Cu     1.578711    2.263041   16.411708    ( 0.0000,  0.0000,  0.0000)
  16 Cu     2.889261    3.014135   18.526317    ( 0.0000,  0.0000,  0.0000)
  17 Cu     1.565811    0.762563   18.564092    ( 0.0000,  0.0000,  0.0000)
  18 Cu     5.518828    3.012614   18.562743    ( 0.0000,  0.0000,  0.0000)
  19 Cu     4.221741    0.765491   18.567411    ( 0.0000,  0.0000,  0.0000)
  20 Cu     5.471189    1.485150   20.723653    ( 0.0000,  0.0000,  0.0000)
  21 Cu     6.820886    3.821699   20.718910    ( 0.0000,  0.0000,  0.0000)
  22 Cu     2.897633    1.512382   20.657484    ( 0.0000,  0.0000,  0.0000)
  23 Cu     4.179252    3.789153   20.634826    ( 0.0000,  0.0000,  0.0000)
  24 Cu     5.553591    4.553404    9.959647    ( 0.0000,  0.0000,  0.0000)
  25 Cu     2.855285    4.554348    9.968809    ( 0.0000,  0.0000,  0.0000)
  26 Cu     4.207555    5.279852   12.121088    ( 0.0000,  0.0000,  0.0000)
  27 Cu     6.800927    5.275813   12.116596    ( 0.0000,  0.0000,  0.0000)
  28 Cu     8.126172    6.047395   14.234665    ( 0.0000,  0.0000,  0.0000)
  29 Cu     5.518121    6.046591   14.279045    ( 0.0000,  0.0000,  0.0000)
  30 Cu     5.510958    4.530357   16.412913    ( 0.0000,  0.0000,  0.0000)
  31 Cu     2.888924    4.532925   16.409607    ( 0.0000,  0.0000,  0.0000)
  32 Cu     4.202596    5.290664   18.528251    ( 0.0000,  0.0000,  0.0000)
  33 Cu     6.816589    5.260323   18.568089    ( 0.0000,  0.0000,  0.0000)
  34 Cu     8.130348    6.040549   20.659808    ( 0.0000,  0.0000,  0.0000)
  35 Cu     5.509712    6.036460   20.655242    ( 0.0000,  0.0000,  0.0000)
  36 Cu     5.517973   -0.003620   10.029166    ( 0.0000,  0.0000,  0.0000)
  37 Cu     6.845330    2.250663   10.051678    ( 0.0000,  0.0000,  0.0000)
  38 Cu     8.132339    3.029355   12.158167    ( 0.0000,  0.0000,  0.0000)
  39 Cu     6.819050    0.752755   12.156076    ( 0.0000,  0.0000,  0.0000)
  40 Cu     8.132507    1.511002   14.274209    ( 0.0000,  0.0000,  0.0000)
  41 Cu     9.442815    3.780545   14.272243    ( 0.0000,  0.0000,  0.0000)
  42 Cu     5.503459   -0.003180   16.404442    ( 0.0000,  0.0000,  0.0000)
  43 Cu     6.817130    2.264234   16.410689    ( 0.0000,  0.0000,  0.0000)
  44 Cu     8.116570    3.015253   18.559905    ( 0.0000,  0.0000,  0.0000)
  45 Cu     6.815078    0.762756   18.560374    ( 0.0000,  0.0000,  0.0000)
  46 Cu     8.177441    1.479323   20.707117    ( 0.0000,  0.0000,  0.0000)
  47 Cu     9.459169    3.788971   20.636908    ( 0.0000,  0.0000,  0.0000)
  48 Cu     8.130327    4.527820   10.025016    ( 0.0000,  0.0000,  0.0000)
  49 Cu     9.458786    5.277882   12.118165    ( 0.0000,  0.0000,  0.0000)
  50 Cu    10.748426    6.042254   14.271226    ( 0.0000,  0.0000,  0.0000)
  51 Cu     8.123374    4.535793   16.405931    ( 0.0000,  0.0000,  0.0000)
  52 Cu     9.429194    5.288687   18.530344    ( 0.0000,  0.0000,  0.0000)
  53 Cu    10.744062    6.015439   20.638260    ( 0.0000,  0.0000,  0.0000)
  54 Cl     6.860998    2.246162   22.602908    ( 0.0000,  0.0000,  0.0000)
  55 Cl     4.196654    3.740170    8.079722    ( 0.0000,  0.0000,  0.0000)

Unit cell:
           periodic     x           y           z      points  spacing
  1. axis:    yes    7.851007    0.000000    0.000000    45     0.1511
  2. axis:    yes    3.925503    6.799171    0.000000    45     0.1511
  3. axis:    yes    0.000000    0.000000   30.683867   175     0.1753

  Lengths:   7.851007   7.851006  30.683867
  Angles:   90.000000  90.000000  60.000001

Effective grid spacing dv^(1/3) = 0.1666

     iter     time        total  log10-change:
                         energy  eigst   dens
iter:   1 15:46:49 -4162.440432  -4.09
iter:   2 15:47:37 -4162.428675  -4.33  -3.12
iter:   3 15:48:24 -4162.421150c -4.92  -3.24
iter:   4 15:49:12 -4162.418367c -5.85  -3.53
iter:   5 15:49:59 -4162.418140c -5.86  -4.16c
iter:   6 15:50:46 -4162.418106c -6.45  -4.29c
iter:   7 15:51:33 -4162.418088c -7.13  -4.48c
iter:   8 15:52:22 -4162.418090c -8.36c -4.69c

Converged after 8 iterations.

Dipole moment: (-6.472140, -0.190242, 0.000606) |e|*Ang

Energy contributions relative to reference atoms: (reference = -2456268.298212)

Kinetic:       +390.345868
Potential:     -435.199775
External:        +0.000000
XC:            -4116.576595
Entropy (-ST):   -0.538207
Local:           -0.718485
Free energy:   -4162.687193
Extrapolated:  -4162.418090

Showing only first 2 kpts
 Kpt  Band  Eigenvalues  Occupancy
  0   302      0.11272    1.17227
  0   303      0.19380    0.77262
  0   304      0.26626    0.46744
  0   305      0.43651    0.10531

  1   302     -0.44738    1.99480
  1   303     -0.24070    1.95962
  1   304     -0.12090    1.87217
  1   305      0.13895    1.04283

Fermi level: 0.14752

No gap

Forces in eV/Ang:
  0 Cu    0.00385    0.00027    0.00044
  1 Cu    0.00408    0.00176    0.00337
  2 Cu   -0.00016   -0.00111    0.00128
  3 Cu   -0.00097   -0.00039    0.00182
  4 Cu    0.00017    0.00184    0.00364
  5 Cu   -0.00081   -0.00119   -0.00102
  6 Cu    0.00094   -0.00034    0.00126
  7 Cu    0.00175   -0.00009   -0.00027
  8 Cu    0.00134   -0.00013   -0.00149
  9 Cu    0.00061   -0.00114   -0.00179
 10 Cu    0.00065    0.00225   -0.00410
 11 Cu   -0.00005    0.00036   -0.00569
 12 Cu   -0.00108    0.00019   -0.00247
 13 Cu   -0.00020    0.00086    0.00000
 14 Cu   -0.00102   -0.00076    0.00211
 15 Cu    0.00005    0.00078    0.00270
 16 Cu   -0.00039   -0.00163    0.00179
 17 Cu   -0.00391    0.00154   -0.00068
 18 Cu    0.00080   -0.00121   -0.00380
 19 Cu   -0.00033   -0.00005   -0.00270
 20 Cu   -0.00528    0.00069   -0.00606
 21 Cu   -0.00424    0.00237   -0.00562
 22 Cu   -0.00217   -0.00271   -0.00101
 23 Cu    0.00455   -0.00366    0.00472
 24 Cu    0.00466   -0.00023    0.00711
 25 Cu   -0.00309    0.00344    0.00869
 26 Cu   -0.00132   -0.00287    0.00654
 27 Cu    0.00195   -0.00187    0.00257
 28 Cu    0.00171   -0.00135    0.00199
 29 Cu   -0.00213   -0.00230   -0.00423
 30 Cu   -0.00083   -0.00047   -0.00040
 31 Cu    0.00132   -0.00088   -0.00230
 32 Cu    0.00057    0.00064    0.00155
 33 Cu   -0.00043   -0.00055   -0.00218
 34 Cu   -0.00024   -0.00065   -0.00177
 35 Cu    0.00059    0.00229   -0.00119
 36 Cu   -0.00201    0.00113    0.00001
 37 Cu   -0.00235    0.00179   -0.00491
 38 Cu    0.00175   -0.00027   -0.00269
 39 Cu    0.00094   -0.00341   -0.00186
 40 Cu   -0.00142    0.00059    0.00153
 41 Cu    0.00052   -0.00098   -0.00421
 42 Cu    0.00266    0.00120    0.00271
 43 Cu   -0.00017   -0.00007    0.00418
 44 Cu    0.00042   -0.00270   -0.00373
 45 Cu    0.00197    0.00012   -0.00432
 46 Cu   -0.00048   -0.00061   -0.00473
 47 Cu    0.00213   -0.00083   -0.00214
 48 Cu    0.00025   -0.00075    0.00085
 49 Cu    0.00285   -0.00235    0.00375
 50 Cu    0.00144   -0.00047   -0.00331
 51 Cu   -0.00018   -0.00317    0.00196
 52 Cu    0.00105   -0.00112    0.00120
 53 Cu    0.00118   -0.00268   -0.00214
 54 Cl   -0.02364    0.00998    0.00434
 55 Cl   -0.00016    0.02685   -0.00261