User:   thorkong@node425.cluster
Date:   Tue Apr 18 01:46:42 2023
Arch:   x86_64
Pid:    3388
Python: 3.10.5
gpaw:   /groups/kemi/thorkong/miniconda3/envs/gpaw22/lib/python3.10/site-packages/gpaw
_gpaw:  /groups/kemi/thorkong/miniconda3/envs/gpaw22/lib/python3.10/site-packages/
        _gpaw.cpython-310-x86_64-linux-gnu.so
ase:    /groups/kemi/thorkong/miniconda3/envs/gpaw22/lib/python3.10/site-packages/ase (version 3.22.1)
numpy:  /groups/kemi/thorkong/miniconda3/envs/gpaw22/lib/python3.10/site-packages/numpy (version 1.23.0)
scipy:  /groups/kemi/thorkong/miniconda3/envs/gpaw22/lib/python3.10/site-packages/scipy (version 1.8.1)
units:  Angstrom and eV
cores: 32
OpenMP: True
OMP_NUM_THREADS: 1

Input parameters:
  basis: dzp
  kpts: [4 4 1]
  mode: {ecut: 600.0,
         name: pw}
  xc: BEEF-vdW

System changes: positions, numbers, cell, pbc, initial_charges, initial_magmoms

Initialize ...

Cu-setup:
  name: Copper
  id: f1c4d45d90492f1bbfdcb091e8418fdf
  Z: 29.0
  valence: 11
  core: 18
  charge: 0.0
  file: /groups/kemi/thorkong/miniconda3/envs/gpaw22/share/gpaw/Cu.PBE.gz
  compensation charges: gauss, rc=0.33, lmax=2
  cutoffs: 2.06(filt), 2.43(core),
  valence states:
                energy  radius
    4s(1.00)    -4.609   1.164
    4p(0.00)    -0.698   1.164
    3d(10.00)    -5.039   1.058
    *s          22.603   1.164
    *p          26.513   1.164
    *d          22.172   1.058

  LCAO basis set for Cu:
    Name: dzp
    File: /groups/kemi/thorkong/miniconda3/envs/gpaw22/share/gpaw/Cu.dzp.basis.gz
    Number of radial functions: 5
    Number of spherical harmonics: 15
      l=0, rc=8.9688 Bohr: 4s-sz confined orbital
      l=2, rc=5.1719 Bohr: 3d-sz confined orbital
      l=0, rc=5.3281 Bohr: 4s-dz split-valence wave
      l=2, rc=3.1406 Bohr: 3d-dz split-valence wave
      l=1, rc=8.9688 Bohr: p-type Gaussian polarization

Cl-setup:
  name: Chlorine
  id: 726897f06f34e53cf8e33b5885a02604
  Z: 17.0
  valence: 7
  core: 10
  charge: 0.0
  file: /groups/kemi/thorkong/miniconda3/envs/gpaw22/share/gpaw/Cl.PBE.gz
  compensation charges: gauss, rc=0.25, lmax=2
  cutoffs: 1.40(filt), 1.49(core),
  valence states:
                energy  radius
    3s(2.00)   -20.689   0.794
    3p(5.00)    -8.594   0.794
    *s           6.523   0.794
    *p          18.617   0.794
    *d           0.000   0.794

  LCAO basis set for Cl:
    Name: dzp
    File: /groups/kemi/thorkong/miniconda3/envs/gpaw22/share/gpaw/Cl.dzp.basis.gz
    Number of radial functions: 5
    Number of spherical harmonics: 13
      l=0, rc=5.1719 Bohr: 3s-sz confined orbital
      l=1, rc=6.2656 Bohr: 3p-sz confined orbital
      l=0, rc=2.8281 Bohr: 3s-dz split-valence wave
      l=1, rc=3.5156 Bohr: 3p-dz split-valence wave
      l=2, rc=6.2656 Bohr: d-type Gaussian polarization

Reference energy: -5113415.786755

Spin-paired calculation

Convergence criteria:
 Maximum [total energy] change in last 3 cyles: 0.0005 eV / electron
 Maximum integral of absolute [dens]ity change: 0.0001 electrons / valence electron
 Maximum integral of absolute [eigenst]ate change: 4e-08 eV^2 / valence electron
 Maximum number of scf [iter]ations: 333
 (Square brackets indicate name in SCF output, whereas a 'c' in
 the SCF output indicates the quantity has converged.)

Symmetries present (total): 1

  ( 1  0  0)
  ( 0  1  0)
  ( 0  0  1)

16 k-points: 4 x 4 x 1 Monkhorst-Pack grid
8 k-points in the irreducible part of the Brillouin zone
       k-points in crystal coordinates                weights
   0:     0.12500000   -0.37500000    0.00000000          2/16
   1:     0.12500000   -0.12500000    0.00000000          2/16
   2:     0.12500000    0.12500000    0.00000000          2/16
   3:     0.12500000    0.37500000    0.00000000          2/16
   4:     0.37500000   -0.37500000    0.00000000          2/16
   5:     0.37500000   -0.12500000    0.00000000          2/16
   6:     0.37500000    0.12500000    0.00000000          2/16
   7:     0.37500000    0.37500000    0.00000000          2/16

Wave functions: Plane wave expansion
  Cutoff energy: 600.000 eV
  Number of coefficients (min, max): 109260, 109338
  Pulay-stress correction: 0.000000 eV/Ang^3 (de/decut=0.000000)
  Using FFTW library
  ScaLapack parameters: grid=2x2, blocksize=64
  Wavefunction extrapolation:
    Improved wavefunction reuse through dual PAW basis

Occupation numbers: Fermi-Dirac: width=0.1000 eV

Eigensolver
   Davidson(niter=2)

Densities:
  Coarse grid: 90*45*175 grid
  Fine grid: 180*90*350 grid
  Total Charge: 0.000000

Density mixing:
  Method: separate
  Backend: pulay
  Linear mixing parameter: 0.05
  Mixing with 5 old densities
  Damping of long wave oscillations: 50

Hamiltonian:
  XC and Coulomb potentials evaluated on a 180*90*350 grid
  Using the BEEF-vdW Exchange-Correlation functional
  External potential:
    NoExternalPotential

XC parameters: BEEF-vdW with 2 nearest neighbor stencil

Total number of cores used: 32
Parallelization over k-points: 8
Domain decomposition: 2 x 1 x 2
                      4 x 2 x 4 (xc only)

Number of atoms: 128
Number of atomic orbitals: 1880
Number of bands in calculation: 801
Number of valence electrons: 1328
Bands to converge: occupied

... initialized

Initializing position-dependent things.

Density initialized from atomic densities
Creating initial wave functions:
  801 bands from LCAO basis set

                       Cl        Cl               Cl
                        CCl    CCl   Cu  Cl Cu    Cu     Cu
                  Cl
                    Cu    CCl    CCl   Cu    Clu    Cu
               Cu    CCu   CCu    Cu    CCu   CCu    Cu

                Cu    Cu     Cu    Cu     Cu    Cu
           Cu    CCu   CCu    CCu   CCu    CCu   Cu

            Cu     Cu   CCu    CCu   CCu    CCu   Cu     Cu
        Cu    Cu     Cu    Cu     Cu    Cu
                    Cu    Cu     Cu    Cu     Cu    Cu
               Cu    CCu   CCu    Cu    CCu   CCu    Cu

[...]

            Cu   ClCu    Cu     Cu Cl Cu    CCu
        Cu    Cu     Cu  ClCu   ClCu   CCu
                                              Cl
                 Cl         Cl    Cl

Positions:
   0 Cu     2.893944   -0.000002   10.003395    ( 0.0000,  0.0000,  0.0000)
   1 Cu     4.202445    2.266388   10.003396    ( 0.0000,  0.0000,  0.0000)
   2 Cu     0.276942   -0.000002   10.003396    ( 0.0000,  0.0000,  0.0000)
   3 Cu     1.585443    2.266388   10.003395    ( 0.0000,  0.0000,  0.0000)
   4 Cu     2.894193    3.021994   12.133835    ( 0.0000,  0.0000,  0.0000)
   5 Cu     1.585692    0.755604   12.133835    ( 0.0000,  0.0000,  0.0000)
   6 Cu     5.511195    3.021994   12.133835    ( 0.0000,  0.0000,  0.0000)
   7 Cu     4.202694    0.755604   12.133835    ( 0.0000,  0.0000,  0.0000)
   8 Cu     5.511307    1.511131   14.271946    ( 0.0000,  0.0000,  0.0000)
   9 Cu     6.819808    3.777521   14.271946    ( 0.0000,  0.0000,  0.0000)
  10 Cu     2.894304    1.511131   14.271946    ( 0.0000,  0.0000,  0.0000)
  11 Cu     4.202806    3.777521   14.271946    ( 0.0000,  0.0000,  0.0000)
  12 Cu     2.893612   -0.000196   16.411707    ( 0.0000,  0.0000,  0.0000)
  13 Cu     4.202113    2.266195   16.411707    ( 0.0000,  0.0000,  0.0000)
  14 Cu     0.276610   -0.000196   16.411707    ( 0.0000,  0.0000,  0.0000)
  15 Cu     1.585111    2.266195   16.411707    ( 0.0000,  0.0000,  0.0000)
  16 Cu     2.893704    3.021712   18.549871    ( 0.0000,  0.0000,  0.0000)
  17 Cu     1.585203    0.755322   18.549871    ( 0.0000,  0.0000,  0.0000)
  18 Cu     5.510706    3.021712   18.549871    ( 0.0000,  0.0000,  0.0000)
  19 Cu     4.202205    0.755322   18.549871    ( 0.0000,  0.0000,  0.0000)
  20 Cu     5.510953    1.510928   20.680296    ( 0.0000,  0.0000,  0.0000)
  21 Cu     6.819454    3.777319   20.680296    ( 0.0000,  0.0000,  0.0000)
  22 Cu     2.893951    1.510928   20.680296    ( 0.0000,  0.0000,  0.0000)
  23 Cu     4.202452    3.777319   20.680296    ( 0.0000,  0.0000,  0.0000)
  24 Cu     5.510946    4.532778   10.003395    ( 0.0000,  0.0000,  0.0000)
  25 Cu     2.893944    4.532778   10.003396    ( 0.0000,  0.0000,  0.0000)
  26 Cu     4.202694    5.288385   12.133835    ( 0.0000,  0.0000,  0.0000)
  27 Cu     6.819696    5.288385   12.133835    ( 0.0000,  0.0000,  0.0000)
  28 Cu     8.128309    6.043912   14.271946    ( 0.0000,  0.0000,  0.0000)
  29 Cu     5.511307    6.043912   14.271946    ( 0.0000,  0.0000,  0.0000)
  30 Cu     5.510614    4.532585   16.411707    ( 0.0000,  0.0000,  0.0000)
  31 Cu     2.893612    4.532585   16.411707    ( 0.0000,  0.0000,  0.0000)
  32 Cu     4.202205    5.288103   18.549871    ( 0.0000,  0.0000,  0.0000)
  33 Cu     6.819207    5.288103   18.549871    ( 0.0000,  0.0000,  0.0000)
  34 Cu     8.127955    6.043709   20.680296    ( 0.0000,  0.0000,  0.0000)
  35 Cu     5.510953    6.043709   20.680296    ( 0.0000,  0.0000,  0.0000)
  36 Cu     5.510946   -0.000002   10.003396    ( 0.0000,  0.0000,  0.0000)
  37 Cu     6.819448    2.266388   10.003396    ( 0.0000,  0.0000,  0.0000)
  38 Cu     8.128197    3.021994   12.133835    ( 0.0000,  0.0000,  0.0000)
  39 Cu     6.819696    0.755604   12.133835    ( 0.0000,  0.0000,  0.0000)
  40 Cu     8.128309    1.511131   14.271946    ( 0.0000,  0.0000,  0.0000)
  41 Cu     9.436810    3.777521   14.271946    ( 0.0000,  0.0000,  0.0000)
  42 Cu     5.510614   -0.000196   16.411706    ( 0.0000,  0.0000,  0.0000)
  43 Cu     6.819115    2.266195   16.411707    ( 0.0000,  0.0000,  0.0000)
  44 Cu     8.127709    3.021712   18.549871    ( 0.0000,  0.0000,  0.0000)
  45 Cu     6.819207    0.755322   18.549871    ( 0.0000,  0.0000,  0.0000)
  46 Cu     8.127955    1.510928   20.680296    ( 0.0000,  0.0000,  0.0000)
  47 Cu     9.436456    3.777319   20.680296    ( 0.0000,  0.0000,  0.0000)
  48 Cu     8.127949    4.532778   10.003395    ( 0.0000,  0.0000,  0.0000)
  49 Cu     9.436698    5.288385   12.133835    ( 0.0000,  0.0000,  0.0000)
  50 Cu    10.745311    6.043912   14.271946    ( 0.0000,  0.0000,  0.0000)
  51 Cu     8.127616    4.532585   16.411707    ( 0.0000,  0.0000,  0.0000)
  52 Cu     9.436210    5.288103   18.549871    ( 0.0000,  0.0000,  0.0000)
  53 Cu    10.744957    6.043709   20.680296    ( 0.0000,  0.0000,  0.0000)
  54 Cu    10.744951   -0.000002   10.003395    ( 0.0000,  0.0000,  0.0000)
  55 Cu    12.053452    2.266388   10.003396    ( 0.0000,  0.0000,  0.0000)
  56 Cu     8.127949   -0.000002   10.003396    ( 0.0000,  0.0000,  0.0000)
  57 Cu     9.436450    2.266388   10.003395    ( 0.0000,  0.0000,  0.0000)
  58 Cu    10.745200    3.021994   12.133835    ( 0.0000,  0.0000,  0.0000)
  59 Cu     9.436699    0.755604   12.133835    ( 0.0000,  0.0000,  0.0000)
[...]
 113 Cl     9.744711    2.221712   22.449871    ( 0.0000,  0.0000,  0.0000)
 114 Cl    12.961621    2.932585   22.511707    ( 0.0000,  0.0000,  0.0000)
 115 Cl    16.378623    4.632585   22.511707    ( 0.0000,  0.0000,  0.0000)
 116 Cl    15.370122   -0.233805   22.511707    ( 0.0000,  0.0000,  0.0000)
 117 Cl     9.344711    5.121712   22.449871    ( 0.0000,  0.0000,  0.0000)
 118 Cl    14.913790    2.802764    7.865423    ( 0.0000,  0.0000,  0.0000)
[...]
            Cu    CCu    Cu     Cu    Cu     Cu
                        Cl         Cl       Cl
        Cu    Cu     Cu    Cu   ClCu    Cu      Cl
                Cl         Cl
                                   Cl

[...]

                                Cl
                       Cl                         Cl
                         Cu    CuCl  Cu   ClCu    Cu     Cu
                 Cl      Clu           Cu     Cu
                    Cu     Cl    Cu Cl       Cl     Cu
               Cu    Cu    CCu    CCu   CCu    CCu   Cu

[...]

            Cu   CCu   CCu    CCu   CCu    CCu   Cu
            Cu    CCu    Cu     Cu    Cu     Cu
                        Cl         Cl       Cl
        Cu    Cu     Cu    Cu   ClCu    Cu      Cl
                Cl         Cl
                                   Cl

[...]

                                Cl
                       Cl                         Cl
                         Cu    CuCl  Cu   ClCu    Cu     Cu
                 Cl      Clu           Cu    Clu
                    Cu     Cl    Cu Cl              Cu
               Cu    Cu    CCu    CCu   CCu    CCu   Cu

[...]

            Cu     Cu    Cu    CCu   CCu    CCu   Cu     Cu
        Cu    Cu    CCu   CCu    CCu   CCu    Cu    Cu

               Cu    CCu   CCu    CCu   CCu    Cu    Cu
                Cu     Cu    Cu    Cu     Cu    Cu

           Cu    CCu   CCu    CCu   CCu    CCu   Cu
                  CCu    Cu     Cu    Cu     Cu
            Cu          Cl         Cl       Cl
        Cu    Cu     Cu    Cu   ClCu    Cu      Cl
                Cl         Cl
                                   Cl

[...]

                                Cl
                       Cl                         Cl
                        Cu     CuCl  Cu   ClCu    Cu     Cu
                 Cl      Clu           Cu    Clu
                    Cu     Cl    Cu Cl              Cu
               Cu    Cu    CCu    CCu   CCu    CCu   Cu

[...]

           Cu    CCu   CCu    CCu   CCu    CCu   Cu
                  CCu    Cu     Cu    Cu     Cu
            Cu          Cl         Cl       Cl
        Cu    Cu     Cu    Cu   ClCu    Cu      Cl
                Cl         Cl
                                    Cl

[...]

                                Cl
                       Cl                         Cl
                        Cu     CuCl  Cu   ClCu    Cu     Cu
                 Cl      Cl            Cu    Clu
                    Cu    CCl    Cu Cl              Cu
               Cu    Cu    CCu    CCu   CCu    CCu   Cu

                Cu     Cu    Cu    Cu     Cu    Cu
           Cu    CCu    Cu    CCu   CCu    CCu   Cu

[...]

               Cu    CCu   CCu    CCu   CCu   CCu    Cu
                Cu     Cu    Cu    Cu     Cu    Cu

           Cu    CCu   CCu    CCu   CCu    CCu   Cu
                  CCu    Cu           Cu
            Cu           Cl     Cu Cl       CCu
        Cu    Cu     Cu    Cu   CCu     Cu      Cl
                Cl         Cl
                                    Cl

[...]

                                Cl
                        Cl
                        Cu     CuCl  Cu  Cl Cu    Cl     Cu
                 Cl      Cl            Cu     Cu
                    Cu    CCl    Cu Cl      Cl      Cu
               Cu    Cu    CCu    CCu   CCu   CuCu   Cu

[...]

               Cu    CCu   CCu    Cu    CCu   CCu    Cu
                Cu    Cu     Cu    Cu           Cu
                                          Cu
           Cu    CCu   CCu    CCu   CCu    CCu   Cu
                  CCu    Cu           Cu
            Cu           Cl     Cu Cl       CCu
        Cu    Cu     Cu    Cu   CCu     Cu      Cl
                Cl         Cl
                                    Cl

[...]

                                Cl
                        Cl
                        Cu       Cl  Cu  Cl Cu   Cl
                 Cl      Cl    Cu                 Cu     Cu
                    Cu    CCl    Cu Cl Cu   Clu     Cu
               Cu    Cu    CCu    CCu   CCu   CCu    Cu

[...]

               Cu    CCu   CCu    Cu    CCu   CCu    Cu
                Cu    Cu     Cu    Cu
                                          Cu    Cu
           Cu    CCu   CCu    CCu   CCu    CCu   Cu
                  CCu    Cu           Cu
            Cu           Cl    Cu  Cl       CCu
        Cu    Cu    Cu     Cu    Cu     Cu       Cl
                Cl         Cl           Cl
                                    Cl

[...]

     iter     time        total  log10-change:
                         energy  eigst   dens
iter:   1 11:50:35 -8913.145121  -1.75
iter:   2 11:56:47 -8919.655435  -2.16  -2.14
iter:   3 12:02:59 -8910.788889  -2.53  -1.93
iter:   4 12:09:12 -8910.014422  -3.75  -2.40
iter:   5 12:15:25 -8909.898968  -3.97  -2.63
iter:   6 12:21:37 -8909.776932c -3.53  -2.71
iter:   7 12:27:52 -8909.750723c -4.36  -2.96
iter:   8 12:34:07 -8909.767455c -4.42  -3.07
iter:   9 12:40:20 -8909.754537c -5.03  -3.14
iter:  10 12:46:32 -8909.742073c -4.96  -3.20
iter:  11 12:52:43 -8909.747579c -4.92  -3.39
iter:  12 12:58:55 -8909.746259c -5.92  -3.62
iter:  13 13:05:06 -8909.743921c -6.19  -3.67
iter:  14 13:11:16 -8909.743690c -5.30  -3.74
iter:  15 13:17:27 -8909.743842c -6.30  -3.97
iter:  16 13:23:38 -8909.743531c -6.35  -4.12c
iter:  17 13:29:51 -8909.743301c -6.19  -4.26c
iter:  18 13:36:04 -8909.743651c -7.36  -4.38c
iter:  19 13:42:15 -8909.743415c -7.93c -4.44c

Converged after 19 iterations.

Dipole moment: (23.245600, 20.240953, -0.054496) |e|*Ang

Energy contributions relative to reference atoms: (reference = -5113415.786755)

Kinetic:       +1016.098183
Potential:     -1069.493434
External:        +0.000000
XC:            -8854.541586
Entropy (-ST):   -1.127084
Local:           -1.243037
Free energy:   -8910.306957
Extrapolated:  -8909.743415

Showing only first 2 kpts
 Kpt  Band  Eigenvalues  Occupancy
  0   662      0.36857    1.01318
  0   663      0.39258    0.89356
  0   664      0.41393    0.78959
  0   665      0.45988    0.58358

  1   662      0.21632    1.64950
  1   663      0.26671    1.47961
  1   664      0.32246    1.23900
  1   665      0.37595    0.97627

Fermi level: 0.37121

No gap

Forces in eV/Ang:
  0 Cu   -0.00506    0.07658   -0.05019
  1 Cu   -0.02714    0.03636   -0.11571
  2 Cu    0.04540    0.02962    0.00200
  3 Cu   -0.15179    0.08844   -0.03047
  4 Cu    0.04548   -0.01240    0.02568
  5 Cu    0.00872   -0.02563   -0.02865
  6 Cu   -0.01330    0.00980   -0.11365
  7 Cu    0.06209    0.00720    0.02354
  8 Cu   -0.02833    0.04634   -0.02079
  9 Cu   -0.02638   -0.00193    0.04738
 10 Cu    0.00995   -0.00756    0.00483
 11 Cu   -0.01161    0.03827    0.06096
 12 Cu   -0.00640    0.00882   -0.01513
 13 Cu   -0.01973    0.01589    0.02517
 14 Cu   -0.00592   -0.00329    0.00767
 15 Cu   -0.00075    0.02289   -0.04582
 16 Cu   -0.02865   -0.01540    0.01299
 17 Cu    0.02513    0.06886   -0.03290
 18 Cu   -0.00017    0.00325    0.02433
 19 Cu   -0.06310    0.00010    0.05082
 20 Cu    0.01954   -0.02808   -0.08172
 21 Cu   -0.05207    0.06756    0.12120
 22 Cu   -0.01921   -0.00365    0.05458
 23 Cu   -0.00663    0.11057   -0.06656
 24 Cu    0.01508   -0.07516    0.01738
 25 Cu   -0.08294   -0.03225    0.01213
 26 Cu    0.00852    0.00360   -0.03938
 27 Cu    0.01864   -0.02257   -0.06329
 28 Cu   -0.03871    0.00930    0.00340
 29 Cu   -0.01108   -0.01845    0.01285
 30 Cu   -0.02433    0.00285    0.05197
 31 Cu   -0.02710    0.00478    0.03249
 32 Cu    0.04662    0.01940   -0.00734
 33 Cu    0.03515   -0.01896   -0.00111
 34 Cu   -0.06381    0.01056   -0.00156
 35 Cu    0.03747    0.04095    0.02789
 36 Cu    0.02985    0.02015   -0.22354
 37 Cu   -0.04819   -0.06146    0.03075
 38 Cu    0.04186   -0.05659    0.03050
 39 Cu    0.01717   -0.03475   -0.03218
 40 Cu   -0.03179   -0.03178   -0.05580
 41 Cu    0.03727    0.00836   -0.07096
 42 Cu   -0.02615    0.01568    0.03831
 43 Cu   -0.02834   -0.02114    0.02862
 44 Cu    0.01034   -0.01726   -0.03892
 45 Cu    0.00103    0.01146   -0.02030
 46 Cu   -0.00155    0.04520    0.00206
 47 Cu   -0.08685    0.00941    0.00021
 48 Cu    0.10755    0.01593   -0.12332
 49 Cu   -0.02369   -0.02103   -0.02734
 50 Cu   -0.05201    0.01129    0.04008
 51 Cu   -0.00296   -0.01401   -0.04481
 52 Cu   -0.03049    0.02750   -0.02902
 53 Cu   -0.05593    0.12758    0.02611
 54 Cu    0.01725   -0.04034   -0.17864
 55 Cu   -0.04258   -0.13995    0.00697
 56 Cu    0.06229   -0.05994    0.01540
 57 Cu    0.06063    0.18836    0.08488
 58 Cu    0.04332   -0.05735   -0.05809
 59 Cu    0.01213   -0.09767   -0.10020
[...]
113 Cl    0.00996    0.03452   -0.07065
114 Cl    0.27041   -0.08905   -0.12739
115 Cl    0.18257    0.06747    0.10395
116 Cl   -0.01187    0.08134   -0.08054
117 Cl    0.05630    0.19397    0.07521
118 Cl   -0.41615    0.25166    0.12524
119 Cl    0.36757    0.03571   -0.11421
120 Cl    0.15462    0.08365    0.01375
121 Cl   -0.11738   -0.47954    0.02390
122 Cl   -0.06103    0.08261    0.03956
123 Cl   -0.09386   -0.01553   -0.41003
124 Cl    0.20405   -0.00162    0.17703
125 Cl    0.10037   -0.06173    0.03665
126 Cl    0.00209    0.19873    0.05222
127 Cl   -0.34909   -0.02383    0.06891

System changes: positions

Initializing position-dependent things.

Density initialized from wave functions

                                 Cl
                        Cl
                        Cu       Cl  Cu  Cl Cu   Cl      Cu
                 Cl      Cl    Cu                 Cu
                    Cu    CCl    Cu Cl Cu   Clu     Cu
               Cu    Cu    CCu    CCu   CCu   CCu    Cu

                Cu     Cu    Cu    Cu     Cu    Cu
           Cu    CCu   CCu    CCu   CCu    CCu   Cu

            Cu     Cu   CCu    CCu   CCu    CCu   Cu     Cu
        Cu    Cu    CCu   CCu    CCu   CCu   Cu     Cu

               Cu    CCu   CCu   CCu    CCu   CCu    Cu
                Cu    Cu     Cu    Cu
                                          Cu    Cu
           Cu    CCu   CCu    CCu   CCu    CCu   Cu
                  CCu    Cu           Cu
            Cu           Cl    Cu Cl        CCu
        Cu    Cu    Cu     Cu    Cu     Cu       Cl
                Cl         Cl           Cl
                                    Cl

Positions:
   0 Cu     2.830925   -0.094362    9.880722    ( 0.0000,  0.0000,  0.0000)
   1 Cu     4.191532    2.256233   10.082814    ( 0.0000,  0.0000,  0.0000)
   2 Cu     0.213410   -0.016497   10.003315    ( 0.0000,  0.0000,  0.0000)
   3 Cu     1.614720    2.208386    9.969796    ( 0.0000,  0.0000,  0.0000)
   4 Cu     2.848164    3.039407   12.108578    ( 0.0000,  0.0000,  0.0000)
   5 Cu     1.555461    0.725497   12.071151    ( 0.0000,  0.0000,  0.0000)
   6 Cu     5.466159    3.005534   12.181584    ( 0.0000,  0.0000,  0.0000)
   7 Cu     4.166292    0.704066   12.071523    ( 0.0000,  0.0000,  0.0000)
   8 Cu     5.500198    1.478830   14.271051    ( 0.0000,  0.0000,  0.0000)
   9 Cu     6.803225    3.779734   14.285293    ( 0.0000,  0.0000,  0.0000)
  10 Cu     2.874898    1.498997   14.215259    ( 0.0000,  0.0000,  0.0000)
  11 Cu     4.182234    3.761488   14.254698    ( 0.0000,  0.0000,  0.0000)
  12 Cu     2.882605   -0.011502   16.370161    ( 0.0000,  0.0000,  0.0000)
  13 Cu     4.204909    2.248694   16.366432    ( 0.0000,  0.0000,  0.0000)
  14 Cu     0.248003   -0.019371   16.374339    ( 0.0000,  0.0000,  0.0000)
  15 Cu     1.573600    2.249675   16.384529    ( 0.0000,  0.0000,  0.0000)
  16 Cu     2.906804    3.019946   18.465260    ( 0.0000,  0.0000,  0.0000)
  17 Cu     1.530138    0.717539   18.507153    ( 0.0000,  0.0000,  0.0000)
  18 Cu     5.501425    2.990847   18.579695    ( 0.0000,  0.0000,  0.0000)
  19 Cu     4.235671    0.724248   18.461640    ( 0.0000,  0.0000,  0.0000)
  20 Cu     5.445918    1.417018   20.723495    ( 0.0000,  0.0000,  0.0000)
  21 Cu     6.821660    3.721185   20.744664    ( 0.0000,  0.0000,  0.0000)
  22 Cu     2.859111    1.449093   20.465810    ( 0.0000,  0.0000,  0.0000)
  23 Cu     4.151155    3.731833   20.811785    ( 0.0000,  0.0000,  0.0000)
  24 Cu     5.415430    4.497980   10.096512    ( 0.0000,  0.0000,  0.0000)
  25 Cu     2.854349    4.522217    9.991832    ( 0.0000,  0.0000,  0.0000)
  26 Cu     4.152371    5.283398   12.149992    ( 0.0000,  0.0000,  0.0000)
  27 Cu     6.791518    5.287075   12.119561    ( 0.0000,  0.0000,  0.0000)
  28 Cu     8.128791    6.034092   14.253162    ( 0.0000,  0.0000,  0.0000)
  29 Cu     5.492641    6.041526   14.244948    ( 0.0000,  0.0000,  0.0000)
  30 Cu     5.495364    4.517276   16.387116    ( 0.0000,  0.0000,  0.0000)
  31 Cu     2.880013    4.525768   16.321177    ( 0.0000,  0.0000,  0.0000)
  32 Cu     4.165085    5.218625   18.500172    ( 0.0000,  0.0000,  0.0000)
  33 Cu     6.790692    5.249129   18.504921    ( 0.0000,  0.0000,  0.0000)
  34 Cu     8.080350    5.997387   20.513053    ( 0.0000,  0.0000,  0.0000)
  35 Cu     5.483068    6.025522   20.559999    ( 0.0000,  0.0000,  0.0000)
  36 Cu     5.442209   -0.059984    9.808547    ( 0.0000,  0.0000,  0.0000)
  37 Cu     6.701079    2.258781   10.105758    ( 0.0000,  0.0000,  0.0000)
  38 Cu     8.083462    3.032426   12.145384    ( 0.0000,  0.0000,  0.0000)
  39 Cu     6.750595    0.720625   12.114273    ( 0.0000,  0.0000,  0.0000)
  40 Cu     8.103596    1.516824   14.298311    ( 0.0000,  0.0000,  0.0000)
  41 Cu     9.418317    3.783651   14.273630    ( 0.0000,  0.0000,  0.0000)
  42 Cu     5.541185   -0.025635   16.386531    ( 0.0000,  0.0000,  0.0000)
  43 Cu     6.823276    2.258967   16.436212    ( 0.0000,  0.0000,  0.0000)
  44 Cu     8.125363    3.016468   18.610635    ( 0.0000,  0.0000,  0.0000)
  45 Cu     6.839396    0.733700   18.618616    ( 0.0000,  0.0000,  0.0000)
  46 Cu     8.207107    1.456478   20.744623    ( 0.0000,  0.0000,  0.0000)
  47 Cu     9.451136    3.791738   20.726562    ( 0.0000,  0.0000,  0.0000)
  48 Cu     8.004704    4.485714    9.932808    ( 0.0000,  0.0000,  0.0000)
  49 Cu     9.388135    5.287175   12.049626    ( 0.0000,  0.0000,  0.0000)
  50 Cu    10.748733    6.024138   14.225238    ( 0.0000,  0.0000,  0.0000)
  51 Cu     8.130082    4.529442   16.426695    ( 0.0000,  0.0000,  0.0000)
  52 Cu     9.482605    5.261252   18.556955    ( 0.0000,  0.0000,  0.0000)
  53 Cu    10.747073    6.004955   20.806983    ( 0.0000,  0.0000,  0.0000)
  54 Cu    10.693232   -0.071697   10.088645    ( 0.0000,  0.0000,  0.0000)
  55 Cu    12.029672    2.287163    9.975609    ( 0.0000,  0.0000,  0.0000)
  56 Cu     8.045469   -0.109312    9.989360    ( 0.0000,  0.0000,  0.0000)
  57 Cu     9.359433    2.125325    9.993268    ( 0.0000,  0.0000,  0.0000)
  58 Cu    10.677554    2.998360   12.098854    ( 0.0000,  0.0000,  0.0000)
  59 Cu     9.362774    0.753611   12.161970    ( 0.0000,  0.0000,  0.0000)
[...]
 113 Cl     9.881924    2.518339   22.608846    ( 0.0000,  0.0000,  0.0000)
 114 Cl    13.114077    2.939289   22.645522    ( 0.0000,  0.0000,  0.0000)
 115 Cl    16.325734    3.370833   22.479362    ( 0.0000,  0.0000,  0.0000)
 116 Cl    15.020497    0.223565   22.516256    ( 0.0000,  0.0000,  0.0000)
 117 Cl     8.920502    5.600286   22.546063    ( 0.0000,  0.0000,  0.0000)
 118 Cl    16.075958    3.075927    8.095265    ( 0.0000,  0.0000,  0.0000)
 119 Cl    12.724002    3.195626    7.781961    ( 0.0000,  0.0000,  0.0000)
 120 Cl    13.608339    5.673440    7.867091    ( 0.0000,  0.0000,  0.0000)
 121 Cl    11.569354    0.826938    8.067047    ( 0.0000,  0.0000,  0.0000)
 122 Cl     7.754387    1.413041    8.266095    ( 0.0000,  0.0000,  0.0000)
 123 Cl     9.571701    3.671387    8.213098    ( 0.0000,  0.0000,  0.0000)
 124 Cl     6.186931    4.926551    8.029755    ( 0.0000,  0.0000,  0.0000)
 125 Cl     2.829660    6.086989    8.155745    ( 0.0000,  0.0000,  0.0000)
 126 Cl     3.155277    1.577132    8.168411    ( 0.0000,  0.0000,  0.0000)
 127 Cl     9.469851    6.496747    7.524017    ( 0.0000,  0.0000,  0.0000)

Unit cell:
           periodic     x           y           z      points  spacing
  1. axis:    yes   15.702014    0.000000    0.000000    90     0.1511
  2. axis:    yes    3.925503    6.799171    0.000000    45     0.1511
  3. axis:    yes    0.000000    0.000000   30.683867   175     0.1753

  Lengths:  15.702014   7.851006  30.683867
  Angles:   90.000000  90.000000  60.000001

Effective grid spacing dv^(1/3) = 0.1666

     iter     time        total  log10-change:
                         energy  eigst   dens
iter:   1 13:52:14 -8910.267937  -2.48
iter:   2 13:58:26 -8910.068608  -3.50  -2.68
iter:   3 14:04:39 -8910.014497c -4.21  -2.79
iter:   4 14:10:52 -8909.974097c -4.19  -2.91
iter:   5 14:17:04 -8909.962149c -4.14  -3.03
iter:   6 14:23:17 -8909.936771c -4.65  -3.15
iter:   7 14:29:29 -8909.933112c -4.84  -3.41