User:   thorkong@node024.cluster
Date:   Sat Oct  8 23:02:39 2022
Arch:   x86_64
Pid:    67725
Python: 3.10.5
gpaw:   /groups/kemi/thorkong/miniconda3/envs/gpaw22/lib/python3.10/site-packages/gpaw
_gpaw:  /groups/kemi/thorkong/miniconda3/envs/gpaw22/lib/python3.10/site-packages/
        _gpaw.cpython-310-x86_64-linux-gnu.so
ase:    /groups/kemi/thorkong/miniconda3/envs/gpaw22/lib/python3.10/site-packages/ase (version 3.22.1)
numpy:  /groups/kemi/thorkong/miniconda3/envs/gpaw22/lib/python3.10/site-packages/numpy (version 1.23.0)
scipy:  /groups/kemi/thorkong/miniconda3/envs/gpaw22/lib/python3.10/site-packages/scipy (version 1.8.1)
units:  Angstrom and eV
cores: 32
OpenMP: True
OMP_NUM_THREADS: 1

Input parameters:
  basis: dzp
  kpts: [4 4 1]
  mode: {ecut: 600.0,
         name: pw}
  xc: BEEF-vdW

System changes: positions, numbers, cell, pbc, initial_charges, initial_magmoms

Initialize ...

Cu-setup:
  name: Copper
  id: f1c4d45d90492f1bbfdcb091e8418fdf
  Z: 29.0
  valence: 11
  core: 18
  charge: 0.0
  file: /groups/kemi/thorkong/miniconda3/envs/gpaw22/share/gpaw/Cu.PBE.gz
  compensation charges: gauss, rc=0.33, lmax=2
  cutoffs: 2.06(filt), 2.43(core),
  valence states:
                energy  radius
    4s(1.00)    -4.609   1.164
    4p(0.00)    -0.698   1.164
    3d(10.00)    -5.039   1.058
    *s          22.603   1.164
    *p          26.513   1.164
    *d          22.172   1.058

  LCAO basis set for Cu:
    Name: dzp
    File: /groups/kemi/thorkong/miniconda3/envs/gpaw22/share/gpaw/Cu.dzp.basis.gz
    Number of radial functions: 5
    Number of spherical harmonics: 15
      l=0, rc=8.9688 Bohr: 4s-sz confined orbital
      l=2, rc=5.1719 Bohr: 3d-sz confined orbital
      l=0, rc=5.3281 Bohr: 4s-dz split-valence wave
      l=2, rc=3.1406 Bohr: 3d-dz split-valence wave
      l=1, rc=8.9688 Bohr: p-type Gaussian polarization

Cl-setup:
  name: Chlorine
  id: 726897f06f34e53cf8e33b5885a02604
  Z: 17.0
  valence: 7
  core: 10
  charge: 0.0
  file: /groups/kemi/thorkong/miniconda3/envs/gpaw22/share/gpaw/Cl.PBE.gz
  compensation charges: gauss, rc=0.25, lmax=2
  cutoffs: 1.40(filt), 1.49(core),
  valence states:
                energy  radius
    3s(2.00)   -20.689   0.794
    3p(5.00)    -8.594   0.794
    *s           6.523   0.794
    *p          18.617   0.794
    *d           0.000   0.794

  LCAO basis set for Cl:
    Name: dzp
    File: /groups/kemi/thorkong/miniconda3/envs/gpaw22/share/gpaw/Cl.dzp.basis.gz
    Number of radial functions: 5
    Number of spherical harmonics: 13
      l=0, rc=5.1719 Bohr: 3s-sz confined orbital
      l=1, rc=6.2656 Bohr: 3p-sz confined orbital
      l=0, rc=2.8281 Bohr: 3s-dz split-valence wave
      l=1, rc=3.5156 Bohr: 3p-dz split-valence wave
      l=2, rc=6.2656 Bohr: d-type Gaussian polarization

Reference energy: -3316874.228935

Spin-paired calculation

Convergence criteria:
 Maximum [total energy] change in last 3 cyles: 0.0005 eV / electron
 Maximum integral of absolute [dens]ity change: 0.0001 electrons / valence electron
 Maximum integral of absolute [eigenst]ate change: 4e-08 eV^2 / valence electron
 Maximum number of scf [iter]ations: 333
 (Square brackets indicate name in SCF output, whereas a 'c' in
 the SCF output indicates the quantity has converged.)

Symmetries present (total): 1

  ( 1  0  0)
  ( 0  1  0)
  ( 0  0  1)

16 k-points: 4 x 4 x 1 Monkhorst-Pack grid
8 k-points in the irreducible part of the Brillouin zone
       k-points in crystal coordinates                weights
   0:     0.12500000   -0.37500000    0.00000000          2/16
   1:     0.12500000   -0.12500000    0.00000000          2/16
   2:     0.12500000    0.12500000    0.00000000          2/16
   3:     0.12500000    0.37500000    0.00000000          2/16
   4:     0.37500000   -0.37500000    0.00000000          2/16
   5:     0.37500000   -0.12500000    0.00000000          2/16
   6:     0.37500000    0.12500000    0.00000000          2/16
   7:     0.37500000    0.37500000    0.00000000          2/16

Wave functions: Plane wave expansion
  Cutoff energy: 600.000 eV
  Number of coefficients (min, max): 66642, 66743
  Pulay-stress correction: 0.000000 eV/Ang^3 (de/decut=0.000000)
  Using FFTW library
  ScaLapack parameters: grid=2x2, blocksize=64
  Wavefunction extrapolation:
    Improved wavefunction reuse through dual PAW basis

Occupation numbers: Fermi-Dirac: width=0.1000 eV

Eigensolver
   Davidson(niter=2)

Densities:
  Coarse grid: 45*42*196 grid
  Fine grid: 90*84*392 grid
  Total Charge: 0.000000

Density mixing:
  Method: separate
  Backend: pulay
  Linear mixing parameter: 0.05
  Mixing with 5 old densities
  Damping of long wave oscillations: 50

Hamiltonian:
  XC and Coulomb potentials evaluated on a 90*84*392 grid
  Using the BEEF-vdW Exchange-Correlation functional
  External potential:
    NoExternalPotential

XC parameters: BEEF-vdW with 2 nearest neighbor stencil

Total number of cores used: 32
Parallelization over k-points: 8
Domain decomposition: 1 x 1 x 4
                      2 x 2 x 8 (xc only)

Number of atoms: 78
Number of atomic orbitals: 1158
Number of bands in calculation: 505
Number of valence electrons: 834
Bands to converge: occupied

... initialized

Initializing position-dependent things.

Density initialized from atomic densities
Creating initial wave functions:
  505 bands from LCAO basis set

 |   Cl  Cu    CCl   Cu  |
 |    |Cu                |
 |    | Cl               |
 |  CuCu   CCu   CuCu    |
 |    |  Cu  CuCu    Cu  |
 |  CuCuCu CCuCu CuCu    |
 |    |  Cu    Cu  CuCu  |
 |Cu  Cu    CuCu   Cu    |
 |  Cu|CuCuCu  CuCu  Cu  |
 |Cu  | Cu               |
 |  CuCu CCuCu CuCuCuCu  |
 |    |Cu                |
 |    | Cu    Cu         |
 |  CuCu CCuCu CuCuCuCu  |
 |    |Cu    Cu    Cu    |
 |  CuCuCu CCuCu CuCu    |
 |    |        Cl        |
 |    |Cl         Cl     |

Positions:
   0 Cu     2.892104   -0.047662   10.028850    ( 0.0000,  0.0000,  0.0000)
   1 Cu     1.584107    1.850645   11.271875    ( 0.0000,  0.0000,  0.0000)
   2 Cu     4.203196    1.851297   11.251295    ( 0.0000,  0.0000,  0.0000)
   3 Cu     0.277579   -0.011970    9.960861    ( 0.0000,  0.0000,  0.0000)
   4 Cu     0.277264   -0.007472   12.605410    ( 0.0000,  0.0000,  0.0000)
   5 Cu     4.201978    1.850315   13.914155    ( 0.0000,  0.0000,  0.0000)
   6 Cu     1.573273    1.850537   13.909595    ( 0.0000,  0.0000,  0.0000)
   7 Cu     2.892443    0.008939   12.619148    ( 0.0000,  0.0000,  0.0000)
   8 Cu     2.893441    0.004875   15.236771    ( 0.0000,  0.0000,  0.0000)
   9 Cu     1.581461    1.851029   16.533722    ( 0.0000,  0.0000,  0.0000)
  10 Cu     4.202955    1.850537   16.538308    ( 0.0000,  0.0000,  0.0000)
  11 Cu     0.276778   -0.008068   15.231823    ( 0.0000,  0.0000,  0.0000)
  12 Cu     0.279478    0.001157   17.851911    ( 0.0000,  0.0000,  0.0000)
  13 Cu     4.203306    1.854998   19.153411    ( 0.0000,  0.0000,  0.0000)
  14 Cu     1.587047    1.855561   19.156958    ( 0.0000,  0.0000,  0.0000)
  15 Cu     2.893642    0.000071   17.857342    ( 0.0000,  0.0000,  0.0000)
  16 Cu     2.894393   -0.000155   20.471291    ( 0.0000,  0.0000,  0.0000)
  17 Cu     1.583783    1.859509   21.771611    ( 0.0000,  0.0000,  0.0000)
  18 Cu     4.204370    1.859960   21.767416    ( 0.0000,  0.0000,  0.0000)
  19 Cu     0.286616    0.001259   20.475438    ( 0.0000,  0.0000,  0.0000)
  20 Cu     0.261611   -0.000117   23.118326    ( 0.0000,  0.0000,  0.0000)
  21 Cu     4.204374    1.803776   24.355685    ( 0.0000,  0.0000,  0.0000)
  22 Cu     1.582120    1.804857   24.361409    ( 0.0000,  0.0000,  0.0000)
  23 Cu     2.893870    0.000863   23.062217    ( 0.0000,  0.0000,  0.0000)
  24 Cu     2.892562    3.747686   10.037572    ( 0.0000,  0.0000,  0.0000)
  25 Cu     1.569421    5.550432   11.274472    ( 0.0000,  0.0000,  0.0000)
  26 Cu     4.203052    5.550636   11.331094    ( 0.0000,  0.0000,  0.0000)
  27 Cu     0.276263    3.712417    9.959721    ( 0.0000,  0.0000,  0.0000)
  28 Cu     0.276785    3.708337   12.604172    ( 0.0000,  0.0000,  0.0000)
  29 Cu     4.202487    5.551658   13.921948    ( 0.0000,  0.0000,  0.0000)
  30 Cu     1.595655    5.551101   13.918125    ( 0.0000,  0.0000,  0.0000)
  31 Cu     2.892569    3.691580   12.625797    ( 0.0000,  0.0000,  0.0000)
  32 Cu     2.893538    3.696527   15.239685    ( 0.0000,  0.0000,  0.0000)
  33 Cu     1.587932    5.551647   16.543386    ( 0.0000,  0.0000,  0.0000)
  34 Cu     4.203146    5.551410   16.535808    ( 0.0000,  0.0000,  0.0000)
  35 Cu     0.279441    3.709166   15.232416    ( 0.0000,  0.0000,  0.0000)
  36 Cu     0.273762    3.699867   17.861814    ( 0.0000,  0.0000,  0.0000)
  37 Cu     4.203395    5.546598   19.156404    ( 0.0000,  0.0000,  0.0000)
  38 Cu     1.584582    5.546923   19.156959    ( 0.0000,  0.0000,  0.0000)
  39 Cu     2.893839    3.700983   17.854747    ( 0.0000,  0.0000,  0.0000)
  40 Cu     2.894886    3.701180   20.478996    ( 0.0000,  0.0000,  0.0000)
  41 Cu     1.583558    5.542233   21.769422    ( 0.0000,  0.0000,  0.0000)
  42 Cu     4.204482    5.542521   21.774097    ( 0.0000,  0.0000,  0.0000)
  43 Cu     0.264581    3.699852   20.484128    ( 0.0000,  0.0000,  0.0000)
  44 Cu     0.274593    3.700974   23.121525    ( 0.0000,  0.0000,  0.0000)
  45 Cu     4.204842    5.599199   24.364427    ( 0.0000,  0.0000,  0.0000)
  46 Cu     1.584574    5.598979   24.357956    ( 0.0000,  0.0000,  0.0000)
  47 Cu     2.893764    3.700203   23.141961    ( 0.0000,  0.0000,  0.0000)
  48 Cu     6.822340    1.850523   11.271711    ( 0.0000,  0.0000,  0.0000)
  49 Cu     5.512282   -0.047506   10.035330    ( 0.0000,  0.0000,  0.0000)
  50 Cu     5.513409    0.009241   12.623796    ( 0.0000,  0.0000,  0.0000)
  51 Cu     6.832230    1.851661   13.909087    ( 0.0000,  0.0000,  0.0000)
  52 Cu     6.822976    1.851625   16.531318    ( 0.0000,  0.0000,  0.0000)
  53 Cu     5.512231    0.004541   15.236144    ( 0.0000,  0.0000,  0.0000)
  54 Cu     5.508830   -0.000166   17.849666    ( 0.0000,  0.0000,  0.0000)
  55 Cu     6.817387    1.842212   19.160744    ( 0.0000,  0.0000,  0.0000)
  56 Cu     6.820139    1.843119   21.789059    ( 0.0000,  0.0000,  0.0000)
  57 Cu     5.501160    0.000395   20.475049    ( 0.0000,  0.0000,  0.0000)
  58 Cu     5.527511    0.001065   23.118763    ( 0.0000,  0.0000,  0.0000)
  59 Cu     6.820656    1.839026   24.433513    ( 0.0000,  0.0000,  0.0000)
[...]
  63 Cu     6.810333    5.550225   13.917692    ( 0.0000,  0.0000,  0.0000)
  64 Cu     6.817347    5.550350   16.541133    ( 0.0000,  0.0000,  0.0000)
  65 Cu     5.509761    3.695975   15.236175    ( 0.0000,  0.0000,  0.0000)
  66 Cu     5.515392    3.700491   17.859401    ( 0.0000,  0.0000,  0.0000)
  67 Cu     6.820048    5.559689   19.161290    ( 0.0000,  0.0000,  0.0000)
  68 Cu     6.819656    5.559021   21.787807    ( 0.0000,  0.0000,  0.0000)
  69 Cu     5.523672    3.700967   20.483599    ( 0.0000,  0.0000,  0.0000)
  70 Cu     5.512846    3.700856   23.121401    ( 0.0000,  0.0000,  0.0000)
  71 Cu     6.819345    5.563533   24.432374    ( 0.0000,  0.0000,  0.0000)
  72 Cl     0.621315    3.708189   26.157691    ( 0.0000,  0.0000,  0.0000)
[...]
 |   Cl  Cu    CCl   Cu  |
 |    |            Cu    |
 |    | Cl               |
 |  CuCu   CCu   CuCu    |
 |    |  Cu  CuCu  CuCu  |
 |Cu  CuCu  Cu     Cu    |
 |  Cu|  CuCu  CuCu  Cu  |
 |Cu  Cu    Cu     Cu    |
 |  Cu|CuCuCu  CuCu  Cu  |
 |Cu  | Cu    Cu         |
 |  CuCu CuCCu CuCuCuCu  |
 |    | Cu    Cu         |
 |  CuCuCu CCu CuCuCuCu  |
 |    |      Cu    Cu    |
 |CuCuCuCuCuCuCu CuCu    |
 |    |        Cl        |
 |Cu  |Cl         Cl     |

[...]

Density initialized from wave functions
 |    |      Cl          |
 |   Cl  Cu    CCl   Cu  |
 |    |            Cu    |
 |  CuCu   CCu   CuCu    |
 |    |  Cu  CuCu  CuCu  |
 |CuCuCuCu  Cu   CuCu    |
 |    |CuCuCu  Cu    Cu  |
 |Cu  Cu    Cu     Cu    |
 |  Cu|CuCuCu  CuCu  Cu  |
 |    | Cu    Cu         |
 |  CuCu CuCCu CuCuCuCu  |
 |    |      Cu    Cu    |
 |    | Cu    Cu         |
 |  CuCu CuCCu CuCuCuCu  |
 |    |      Cu    Cu    |
 |CuCuCu  CuCu   CuCu    |
 |    |        Cl        |
 |Cu  |Cl         Cl     |

[...]

Density initialized from wave functions
 |    |      Cl          |
 |   Cl  Cu    CCl   Cu  |
 |    |            Cu    |
 |  CuCu   CCu   CuCu    |
 |    |  Cu    Cu    Cu  |
 |CuCuCuCu  Cu   CuCu    |
 |    |CuCuCu  Cu    Cu  |
 |Cu  CuCu  CuCu   Cu    |
 |  Cu|  CuCu  CuCu  Cu  |
 |    | Cu    Cu         |
 |  CuCu CCuCu CuCuCuCu  |
 |    |      Cu    Cu    |
 |Cu  | Cu    Cu         |
 |  CuCu   CCu CuCuCu    |
 |    |  Cu  Cu    CuCu  |
 |CuCuCu  CuCu   CuCu    |
 |    |        Cl        |
 |Cu  |Cl         Cl     |

[...]

Density initialized from wave functions
 |    |      Cl          |
 |   Cl  Cu    CCl   Cu  |
 |    |            Cu    |
 |  CuCu   CCu   CuCu    |
 |    |  Cu    Cu    Cu  |
 |CuCuCuCu  Cu   CuCu    |
 |    |CuCuCu  Cu    Cu  |
 |Cu  CuCu  CuCu   Cu    |
 |  Cu|  CuCuCuCuCuCuCu  |
 |    | Cu    Cu         |
 |  CuCu CCuCu CuCuCuCu  |
 |    |      Cu    Cu    |
 |Cu  |                  |
 |  CuCu   CCu CuCuCu    |
 |    |CuCu  Cu    CuCu  |
 |CuCuCu  CuCu   CuCu    |
 |    |        Cl        |
 |    |Cl        Cl      |

[...]

Density initialized from wave functions
 |    |      Cl          |
 |    Cl Cu    Cl        |
 |    |            CuCu  |
 |  CuCu   CCu   CuCu    |
 |    |  Cu    Cu  CuCu  |
 |CuCuCuCu CCu   CuCu    |
 |    |CuCu    Cu    Cu  |
 |Cu  CuCu  Cu     Cu    |
 |  Cu|  CuCuCuCuCuCuCu  |
 |    | Cu    Cu         |
 |  CuCu CuCCu CuCuCuCu  |
 |    |Cu    Cu    Cu    |
 |Cu  |                  |
 |  CuCu   CCu CuCuCu    |
 |    |CuCu          Cu  |
 |  CuCu  CuCu   CuCu    |
 |    |        Cl        |
 |    | Cu    Cu Cl      |

[...]

Density initialized from wave functions
 |    |      Cl          |
 |    Cl Cu    Cl        |
 |    |            CuCu  |
 |  CuCu   CCu   CuCu    |
 |    |  Cu    Cu  CuCu  |
 |CuCuCuCu CCu   CuCu    |
 |    |CuCu    Cu    Cu  |
 |Cu  CuCu  Cu     Cu    |
 |  Cu|CuCuCuCuCuCuCuCu  |
 |    | Cu    Cu         |
 |  CuCu CuCCu CuCuCuCu  |
 |    |Cu    Cu    Cu    |
 |  CuCu   CCu   CuCu    |
 |    |CuCu    Cu    Cu  |
 |  CuCu  CuCu   CuCu    |
 |    |        Cl        |
 |    | Cu    Cu Cl      |

[...]

Density initialized from wave functions
 |    |      Cl          |
 |    ClCu     Cl        |
 |    |            CuCu  |
 |  CuCu   CuCu  CuCu    |
 |    |CuCu    Cu  CuCu  |
 |Cu  CuCu CCu     Cu    |
 |  Cu|CuCu    CuCuCuCu  |
 |    CuCu  Cu     Cu    |
 |  Cu|CuCuCuCuCuCuCuCu  |
 |    | Cu               |
 |  CuCu CuCCu CuCuCuCu  |
 |    |Cu    Cu    Cu    |
 |  CuCu CuCCu   CuCuCu  |
 |    |Cu      Cu        |
 |  CuCu  CuCu   CuCu    |
 |    |        Cl        |
 |    | Cu    Cu Cl      |

[...]

Density initialized from wave functions
 |    |      Cl          |
 |    Cl Cu    Cl        |
 |    |            CuCu  |
 |  CuCu   CCu   CuCu    |
 |    |  Cu    Cu  CuCu  |
 |CuCuCuCu CCu   CuCu    |
 |    |CuCu    Cu    Cu  |
 |Cu  CuCu  Cu     Cu    |
 |  Cu|CuCuCuCuCuCuCuCu  |
 |    | Cu    Cu         |
 |  CuCu CuCCu CuCuCuCu  |
 |    |Cu    Cu    Cu    |
 |  CuCu   CCu   CuCu    |
 |    |CuCu    Cu    Cu  |
 |  CuCu  CuCu   CuCu    |
 |    |        Cl        |
 |    | Cu    Cu Cl      |

[...]

Density initialized from wave functions
 |    |      Cl          |
 |    Cl Cu    Cl        |
 |    |            CuCu  |
 |  CuCu   CCu   CuCu    |
 |    |  Cu    Cu  CuCu  |
 |Cu  CuCu CCu   CuCu    |
 |  Cu|CuCu    Cu    Cu  |
 |Cu  CuCu  Cu     Cu    |
 |  Cu|CuCuCuCuCuCuCuCu  |
 |    | Cu    Cu         |
 |  CuCu CuCCu CuCuCuCu  |
 |    |Cu    Cu    Cu    |
 |  CuCu   CCu   CuCu    |
 |    |CuCu    Cu    Cu  |
 |  CuCu  CuCu   CuCu    |
 |    |        Cl        |
 |    | Cu    Cu Cl      |

[...]

Density initialized from wave functions
 |    |      Cl          |
 |    ClCu     Cl        |
 |    |              Cu  |
 |  CuCu   CuCu  CuCu    |
 |    |CuCu    Cu  CuCu  |
 |Cu  CuCu  CuCu   Cu    |
 |  Cu|CuCuCu  CuCu  Cu  |
 |    CuCu  Cu     Cu    |
 |  Cu|  CuCuCuCuCuCuCu  |
 |    | Cu    Cu         |
 |  CuCu CuCCu CuCuCuCu  |
 |    |Cu    Cu    Cu    |
 |Cu  |                  |
 |  CuCu CuCCu   CuCuCu  |
 |    |        Cu        |
 |  CuCu  CuCu   CuCu    |
 |    |        Cl        |
 |Cu  | Cu    Cu Cl      |

[...]

Density initialized from wave functions
 |    |      Cl          |
 |    ClCu     Cl        |
 |    |              Cu  |
 |  CuCu   CuCu  CuCu    |
 |    |  Cu    Cu    Cu  |
 |Cu  CuCu  CuCu   Cu    |
 |  Cu|CuCuCu  CuCu  Cu  |
 |Cu  CuCu  CuCu   Cu    |
 |  Cu|  CuCuCuCuCuCuCu  |
 |    | Cu    Cu         |
 |  CuCu CuCCu CuCuCuCu  |
 |    |Cu    Cu    Cu    |
 |Cu  |                  |
 |  CuCu CuCCu   CuCuCu  |
 |    |Cu      Cu        |
 |  CuCu  CuCu   CuCu    |
 |    |        Cl        |
 |    | Cu    Cu Cl      |

[...]

System changes: positions

Initializing position-dependent things.

Density initialized from wave functions
 |    |      Cl          |
 |    ClCu     Cl        |
 |    |              Cu  |
 |  CuCu   CuCu  CuCu    |
 |    |  Cu    Cu    Cu  |
 |Cu  CuCu  CuCu   Cu    |
 |  Cu|CuCuCu  CuCu  Cu  |
 |Cu  CuCu  CuCu   Cu    |
 |  Cu|  CuCuCuCuCuCuCu  |
 |    | Cu    Cu         |
 |  CuCu CuCCu CuCuCuCu  |
 |    |Cu    Cu    Cu    |
 |Cu  |                  |
 |  CuCu CuCCu   CuCuCu  |
 |    |Cu      Cu        |
 |  CuCu  CuCu   CuCu    |
 |    |        Cl        |
 |    | Cu    Cu Cl      |

Positions:
   0 Cu     2.866363    0.051986    9.945224    ( 0.0000,  0.0000,  0.0000)
   1 Cu     1.586066    1.850248   11.361242    ( 0.0000,  0.0000,  0.0000)
   2 Cu     4.203114    1.850215   11.360547    ( 0.0000,  0.0000,  0.0000)
   3 Cu     0.276982   -0.001626   10.076859    ( 0.0000,  0.0000,  0.0000)
   4 Cu     0.276883   -0.010258   12.614621    ( 0.0000,  0.0000,  0.0000)
   5 Cu     4.203213    1.850491   13.930631    ( 0.0000,  0.0000,  0.0000)
   6 Cu     1.594475    1.850551   13.931647    ( 0.0000,  0.0000,  0.0000)
   7 Cu     2.901697   -0.027315   12.569383    ( 0.0000,  0.0000,  0.0000)
   8 Cu     2.894929   -0.003280   15.218755    ( 0.0000,  0.0000,  0.0000)
   9 Cu     1.586916    1.852244   16.548654    ( 0.0000,  0.0000,  0.0000)
  10 Cu     4.202252    1.852366   16.545960    ( 0.0000,  0.0000,  0.0000)
  11 Cu     0.278895    0.000601   15.225246    ( 0.0000,  0.0000,  0.0000)
  12 Cu     0.279073   -0.000008   17.840966    ( 0.0000,  0.0000,  0.0000)
  13 Cu     4.202754    1.847523   19.180207    ( 0.0000,  0.0000,  0.0000)
  14 Cu     1.587170    1.847623   19.179566    ( 0.0000,  0.0000,  0.0000)
  15 Cu     2.895700    0.001868   17.854094    ( 0.0000,  0.0000,  0.0000)
  16 Cu     2.894999    0.000425   20.488142    ( 0.0000,  0.0000,  0.0000)
  17 Cu     1.592935    1.823220   21.826825    ( 0.0000,  0.0000,  0.0000)
  18 Cu     4.196436    1.823421   21.829020    ( 0.0000,  0.0000,  0.0000)
  19 Cu     0.275712    0.000313   20.460220    ( 0.0000,  0.0000,  0.0000)
  20 Cu     0.276129    0.000297   23.125779    ( 0.0000,  0.0000,  0.0000)
  21 Cu     4.231649    1.905216   24.452061    ( 0.0000,  0.0000,  0.0000)
  22 Cu     1.562025    1.905598   24.449938    ( 0.0000,  0.0000,  0.0000)
  23 Cu     2.896026    0.001937   23.171543    ( 0.0000,  0.0000,  0.0000)
  24 Cu     2.865418    3.646489    9.941669    ( 0.0000,  0.0000,  0.0000)
  25 Cu     1.584295    5.550730   11.264045    ( 0.0000,  0.0000,  0.0000)
  26 Cu     4.201439    5.549549   11.222166    ( 0.0000,  0.0000,  0.0000)
  27 Cu     0.276960    3.701792   10.078027    ( 0.0000,  0.0000,  0.0000)
  28 Cu     0.277367    3.710426   12.616814    ( 0.0000,  0.0000,  0.0000)
  29 Cu     4.202665    5.551075   13.905237    ( 0.0000,  0.0000,  0.0000)
  30 Cu     1.584501    5.551249   13.931679    ( 0.0000,  0.0000,  0.0000)
  31 Cu     2.901147    3.727933   12.564498    ( 0.0000,  0.0000,  0.0000)
  32 Cu     2.894930    3.703973   15.213062    ( 0.0000,  0.0000,  0.0000)
  33 Cu     1.588990    5.549837   16.556454    ( 0.0000,  0.0000,  0.0000)
  34 Cu     4.201976    5.549620   16.539079    ( 0.0000,  0.0000,  0.0000)
  35 Cu     0.278646    3.700250   15.228463    ( 0.0000,  0.0000,  0.0000)
  36 Cu     0.277800    3.701032   17.848285    ( 0.0000,  0.0000,  0.0000)
  37 Cu     4.202753    5.554781   19.174491    ( 0.0000,  0.0000,  0.0000)
  38 Cu     1.587962    5.554709   19.182238    ( 0.0000,  0.0000,  0.0000)
  39 Cu     2.895419    3.699142   17.847220    ( 0.0000,  0.0000,  0.0000)
  40 Cu     2.894539    3.701011   20.462738    ( 0.0000,  0.0000,  0.0000)
  41 Cu     1.592770    5.579614   21.829136    ( 0.0000,  0.0000,  0.0000)
  42 Cu     4.195871    5.578948   21.824118    ( 0.0000,  0.0000,  0.0000)
  43 Cu     0.285994    3.701085   20.459884    ( 0.0000,  0.0000,  0.0000)
  44 Cu     0.279239    3.702030   23.031565    ( 0.0000,  0.0000,  0.0000)
  45 Cu     4.230711    5.499278   24.448484    ( 0.0000,  0.0000,  0.0000)
  46 Cu     1.560229    5.498513   24.453507    ( 0.0000,  0.0000,  0.0000)
  47 Cu     2.894288    3.701277   23.032822    ( 0.0000,  0.0000,  0.0000)
  48 Cu     6.818204    1.849462   11.361757    ( 0.0000,  0.0000,  0.0000)
  49 Cu     5.537022    0.052783    9.940044    ( 0.0000,  0.0000,  0.0000)
  50 Cu     5.504828   -0.027999   12.564343    ( 0.0000,  0.0000,  0.0000)
  51 Cu     6.811793    1.850408   13.933480    ( 0.0000,  0.0000,  0.0000)
  52 Cu     6.819867    1.850472   16.544955    ( 0.0000,  0.0000,  0.0000)
  53 Cu     5.509731   -0.003213   15.211022    ( 0.0000,  0.0000,  0.0000)
  54 Cu     5.508687    0.001655   17.836760    ( 0.0000,  0.0000,  0.0000)
  55 Cu     6.819029    1.851290   19.164836    ( 0.0000,  0.0000,  0.0000)
  56 Cu     6.820229    1.841029   21.776585    ( 0.0000,  0.0000,  0.0000)
  57 Cu     5.513196    0.000247   20.461691    ( 0.0000,  0.0000,  0.0000)
  58 Cu     5.513055    0.000756   23.129556    ( 0.0000,  0.0000,  0.0000)
  59 Cu     6.820308    1.849741   24.315284    ( 0.0000,  0.0000,  0.0000)
[...]
  63 Cu     6.821994    5.551190   13.933131    ( 0.0000,  0.0000,  0.0000)
  64 Cu     6.818593    5.551500   16.552275    ( 0.0000,  0.0000,  0.0000)
  65 Cu     5.510537    3.703875   15.213691    ( 0.0000,  0.0000,  0.0000)
  66 Cu     5.510735    3.699263   17.844581    ( 0.0000,  0.0000,  0.0000)
  67 Cu     6.818786    5.550856   19.168068    ( 0.0000,  0.0000,  0.0000)
  68 Cu     6.820709    5.561798   21.778781    ( 0.0000,  0.0000,  0.0000)
  69 Cu     5.503193    3.700953   20.461811    ( 0.0000,  0.0000,  0.0000)
  70 Cu     5.511245    3.701246   23.032220    ( 0.0000,  0.0000,  0.0000)
  71 Cu     6.820297    5.553085   24.316459    ( 0.0000,  0.0000,  0.0000)
  72 Cl     0.978602    3.697097   25.955043    ( 0.0000,  0.0000,  0.0000)
  73 Cl     4.803881    3.705673   25.952498    ( 0.0000,  0.0000,  0.0000)
  74 Cl     2.871461   -0.009105   25.862434    ( 0.0000,  0.0000,  0.0000)
  75 Cl     6.118030    1.854449    8.438573    ( 0.0000,  0.0000,  0.0000)
  76 Cl     2.292708    1.845823    8.441316    ( 0.0000,  0.0000,  0.0000)
  77 Cl     4.225391    5.560719    8.531211    ( 0.0000,  0.0000,  0.0000)

Unit cell:
           periodic     x           y           z      points  spacing
  1. axis:    yes    7.851007    0.000000    0.000000    45     0.1745
  2. axis:    yes    0.000000    7.402000    0.000000    42     0.1762
  3. axis:    yes    0.000000    0.000000   34.393512   196     0.1755

  Lengths:   7.851007   7.402000  34.393512
  Angles:   90.000000  90.000000  90.000000

Effective grid spacing dv^(1/3) = 0.1754

     iter     time        total  log10-change:
                         energy  eigst   dens
iter:   1 04:44:44 -5674.767227  -4.11
iter:   2 04:45:59 -5674.756818  -4.56  -3.24
iter:   3 04:47:13 -5674.754247c -5.47  -3.50
iter:   4 04:48:25 -5674.753799c -5.69  -3.62
iter:   5 04:49:38 -5674.751978c -5.30  -3.65
iter:   6 04:50:52 -5674.751782c -6.25  -4.11c
iter:   7 04:52:06 -5674.751782c -6.99  -4.29c
iter:   8 04:53:18 -5674.751793c -7.09  -4.38c
iter:   9 04:54:49 -5674.751784c -6.97  -4.49c
iter:  10 04:56:02 -5674.751775c -7.89c -4.71c

Converged after 10 iterations.

Dipole moment: (-72.563402, -0.395477, 0.000856) |e|*Ang

Energy contributions relative to reference atoms: (reference = -3316874.228935)

Kinetic:       +556.684483
Potential:     -612.589578
External:        +0.000000
XC:            -5617.488497
Entropy (-ST):   -0.706929
Local:           -1.004718
Free energy:   -5675.105239
Extrapolated:  -5674.751775

Showing only first 2 kpts
 Kpt  Band  Eigenvalues  Occupancy
  0   415      0.67301    1.10049
  0   416      0.73706    0.78401
  0   417      0.85178    0.33988
  0   418      0.86605    0.30148

  1   415      0.21936    1.98264
  1   416      0.37522    1.92011
  1   417      0.43567    1.85847
  1   418      0.59040    1.47294

Fermi level: 0.69317

No gap

Forces in eV/Ang:
  0 Cu   -0.00106    0.00916   -0.00005
  1 Cu   -0.00675   -0.00112    0.00643
  2 Cu   -0.00001   -0.00080    0.00570
  3 Cu    0.00046    0.00179    0.01091
  4 Cu   -0.00046   -0.00046    0.00261
  5 Cu   -0.00033   -0.00147   -0.00405
  6 Cu    0.00186   -0.00134    0.00056
  7 Cu   -0.00097   -0.00309    0.00271
  8 Cu    0.00037   -0.00424   -0.00144
  9 Cu    0.00013   -0.00382    0.00152
 10 Cu    0.00018   -0.00381   -0.00366
 11 Cu   -0.00007   -0.00330   -0.00480
 12 Cu   -0.00048   -0.00285    0.00488
 13 Cu   -0.00022   -0.00427    0.00632
 14 Cu    0.00044   -0.00405    0.00702
 15 Cu    0.00009   -0.00367    0.00050
 16 Cu    0.00041   -0.00131   -0.00662
 17 Cu   -0.00026   -0.00276    0.00060
 18 Cu    0.00101   -0.00236   -0.00163
 19 Cu    0.00208   -0.00031    0.00685
 20 Cu    0.00272    0.00020    0.00024
 21 Cu    0.00236    0.01164   -0.00154
 22 Cu    0.00161    0.00868    0.00149
 23 Cu    0.00171    0.00042   -0.00767
 24 Cu   -0.00148   -0.01100    0.00196
 25 Cu    0.00313   -0.00028   -0.00081
 26 Cu   -0.00129   -0.00042    0.00671
 27 Cu   -0.00008   -0.00265    0.01047
 28 Cu    0.00000   -0.00021    0.00183
 29 Cu   -0.00012    0.00128    0.00450
 30 Cu    0.00249    0.00121   -0.00578
 31 Cu   -0.00091    0.00239    0.00079
 32 Cu    0.00055    0.00415   -0.00725
 33 Cu   -0.00030    0.00380   -0.00368
 34 Cu    0.00019    0.00370   -0.00130
 35 Cu    0.00004    0.00316   -0.00694
 36 Cu    0.00019    0.00294   -0.00031
 37 Cu   -0.00007    0.00436    0.00076
 38 Cu    0.00027    0.00427    0.00521
 39 Cu    0.00009    0.00378    0.00299
 40 Cu    0.00061    0.00144    0.00211
 41 Cu   -0.00035    0.00263    0.00047
 42 Cu    0.00106    0.00307   -0.00338
 43 Cu    0.00174    0.00016    0.00165
 44 Cu   -0.00498    0.00035   -0.00332
 45 Cu    0.00193   -0.00974    0.00050
 46 Cu   -0.00085   -0.00900    0.00241
 47 Cu    0.00016    0.00076   -0.00730
 48 Cu    0.00525   -0.00034    0.00237
 49 Cu    0.00098    0.00859   -0.00184
 50 Cu    0.00069   -0.00273   -0.00109
 51 Cu   -0.00150   -0.00018   -0.00309
 52 Cu    0.00011   -0.00295   -0.00056
 53 Cu    0.00008   -0.00416   -0.00582
 54 Cu    0.00072   -0.00377    0.00322
 55 Cu    0.00020   -0.00312    0.00589
 56 Cu    0.00024    0.00060   -0.00277
 57 Cu   -0.00181   -0.00121    0.00408
 58 Cu   -0.00264    0.00028   -0.00001
 59 Cu    0.00046    0.00298   -0.01146
[...]
 63 Cu   -0.00233    0.00034   -0.00858
 64 Cu    0.00070    0.00284   -0.00554
 65 Cu   -0.00016    0.00396   -0.00773
 66 Cu    0.00021    0.00376   -0.00217
 67 Cu    0.00030    0.00327    0.00377
 68 Cu    0.00070    0.00013   -0.00355
 69 Cu   -0.00157    0.00132   -0.00189
 70 Cu    0.00716    0.00111   -0.00750
 71 Cu   -0.00003   -0.00213   -0.01191
 72 Cl    0.00010   -0.00312    0.00502
 73 Cl   -0.00513   -0.00101    0.00620
 74 Cl   -0.00621   -0.00477   -0.02267
 75 Cl    0.00019    0.00319   -0.00093
 76 Cl    0.00488    0.00107   -0.00164
 77 Cl    0.00642    0.00483    0.02698