User:   thorkong@node024.cluster
Date:   Mon Oct 17 09:49:18 2022
Arch:   x86_64
Pid:    12236
Python: 3.10.5
gpaw:   /groups/kemi/thorkong/miniconda3/envs/gpaw22/lib/python3.10/site-packages/gpaw
_gpaw:  /groups/kemi/thorkong/miniconda3/envs/gpaw22/lib/python3.10/site-packages/
        _gpaw.cpython-310-x86_64-linux-gnu.so
ase:    /groups/kemi/thorkong/miniconda3/envs/gpaw22/lib/python3.10/site-packages/ase (version 3.22.1)
numpy:  /groups/kemi/thorkong/miniconda3/envs/gpaw22/lib/python3.10/site-packages/numpy (version 1.23.0)
scipy:  /groups/kemi/thorkong/miniconda3/envs/gpaw22/lib/python3.10/site-packages/scipy (version 1.8.1)
units:  Angstrom and eV
cores: 32
OpenMP: True
OMP_NUM_THREADS: 1

Input parameters:
  basis: dzp
  kpts: [4 4 1]
  mode: {ecut: 600.0,
         name: pw}
  xc: BEEF-vdW

System changes: positions, numbers, cell, pbc, initial_charges, initial_magmoms

Initialize ...

Cu-setup:
  name: Copper
  id: f1c4d45d90492f1bbfdcb091e8418fdf
  Z: 29.0
  valence: 11
  core: 18
  charge: 0.0
  file: /groups/kemi/thorkong/miniconda3/envs/gpaw22/share/gpaw/Cu.PBE.gz
  compensation charges: gauss, rc=0.33, lmax=2
  cutoffs: 2.06(filt), 2.43(core),
  valence states:
                energy  radius
    4s(1.00)    -4.609   1.164
    4p(0.00)    -0.698   1.164
    3d(10.00)    -5.039   1.058
    *s          22.603   1.164
    *p          26.513   1.164
    *d          22.172   1.058

  LCAO basis set for Cu:
    Name: dzp
    File: /groups/kemi/thorkong/miniconda3/envs/gpaw22/share/gpaw/Cu.dzp.basis.gz
    Number of radial functions: 5
    Number of spherical harmonics: 15
      l=0, rc=8.9688 Bohr: 4s-sz confined orbital
      l=2, rc=5.1719 Bohr: 3d-sz confined orbital
      l=0, rc=5.3281 Bohr: 4s-dz split-valence wave
      l=2, rc=3.1406 Bohr: 3d-dz split-valence wave
      l=1, rc=8.9688 Bohr: p-type Gaussian polarization

Cl-setup:
  name: Chlorine
  id: 726897f06f34e53cf8e33b5885a02604
  Z: 17.0
  valence: 7
  core: 10
  charge: 0.0
  file: /groups/kemi/thorkong/miniconda3/envs/gpaw22/share/gpaw/Cl.PBE.gz
  compensation charges: gauss, rc=0.25, lmax=2
  cutoffs: 1.40(filt), 1.49(core),
  valence states:
                energy  radius
    3s(2.00)   -20.689   0.794
    3p(5.00)    -8.594   0.794
    *s           6.523   0.794
    *p          18.617   0.794
    *d           0.000   0.794

  LCAO basis set for Cl:
    Name: dzp
    File: /groups/kemi/thorkong/miniconda3/envs/gpaw22/share/gpaw/Cl.dzp.basis.gz
    Number of radial functions: 5
    Number of spherical harmonics: 13
      l=0, rc=5.1719 Bohr: 3s-sz confined orbital
      l=1, rc=6.2656 Bohr: 3p-sz confined orbital
      l=0, rc=2.8281 Bohr: 3s-dz split-valence wave
      l=1, rc=3.5156 Bohr: 3p-dz split-valence wave
      l=2, rc=6.2656 Bohr: d-type Gaussian polarization

Reference energy: -2481378.197003

Spin-paired calculation

Convergence criteria:
 Maximum [total energy] change in last 3 cyles: 0.0005 eV / electron
 Maximum integral of absolute [dens]ity change: 0.0001 electrons / valence electron
 Maximum integral of absolute [eigenst]ate change: 4e-08 eV^2 / valence electron
 Maximum number of scf [iter]ations: 333
 (Square brackets indicate name in SCF output, whereas a 'c' in
 the SCF output indicates the quantity has converged.)

Symmetries present (total): 1

  ( 1  0  0)
  ( 0  1  0)
  ( 0  0  1)

16 k-points: 4 x 4 x 1 Monkhorst-Pack grid
8 k-points in the irreducible part of the Brillouin zone
       k-points in crystal coordinates                weights
   0:     0.12500000   -0.37500000    0.00000000          2/16
   1:     0.12500000   -0.12500000    0.00000000          2/16
   2:     0.12500000    0.12500000    0.00000000          2/16
   3:     0.12500000    0.37500000    0.00000000          2/16
   4:     0.37500000   -0.37500000    0.00000000          2/16
   5:     0.37500000   -0.12500000    0.00000000          2/16
   6:     0.37500000    0.12500000    0.00000000          2/16
   7:     0.37500000    0.37500000    0.00000000          2/16

Wave functions: Plane wave expansion
  Cutoff energy: 600.000 eV
  Number of coefficients (min, max): 54614, 54705
  Pulay-stress correction: 0.000000 eV/Ang^3 (de/decut=0.000000)
  Using FFTW library
  ScaLapack parameters: grid=2x2, blocksize=64
  Wavefunction extrapolation:
    Improved wavefunction reuse through dual PAW basis

Occupation numbers: Fermi-Dirac: width=0.1000 eV

Eigensolver
   Davidson(niter=2)

Densities:
  Coarse grid: 45*45*175 grid
  Fine grid: 90*90*350 grid
  Total Charge: 0.000000

Density mixing:
  Method: separate
  Backend: pulay
  Linear mixing parameter: 0.05
  Mixing with 5 old densities
  Damping of long wave oscillations: 50

Hamiltonian:
  XC and Coulomb potentials evaluated on a 90*90*350 grid
  Using the BEEF-vdW Exchange-Correlation functional
  External potential:
    NoExternalPotential

XC parameters: BEEF-vdW with 2 nearest neighbor stencil

Total number of cores used: 32
Parallelization over k-points: 8
Domain decomposition: 1 x 1 x 4
                      2 x 2 x 8 (xc only)

Number of atoms: 58
Number of atomic orbitals: 862
Number of bands in calculation: 378
Number of valence electrons: 622
Bands to converge: occupied

... initialized

Initializing position-dependent things.

Density initialized from atomic densities
Creating initial wave functions:
  378 bands from LCAO basis set

                                   Cl

                       Cl
                        Cu    Cu     Cu
                   Cu     Cu    Cu
               Cu    Cu     Cu
                    Cu     Cu    Cu
                Cu    Cu    Cu
           Cu    Cu     Cu
                Cu     Cu    Cu
            Cu    Cu     Cu
       Cu     Cu    Cu  Cu    Cu     Cu
                   Cu     Cu    Cu
               Cu    Cu     Cu
                    Cu     Cu    Cu
                Cu    Cu    Cu
           Cu    Cu     Cu
                Cu     Cu    Cu
            Cu    Cu     Cu
       Cu     Cu    Cu
                     Cl

[...]

Positions:
   0 Cu     2.884162   -0.011729   10.033678    ( 0.0000,  0.0000,  0.0000)
   1 Cu     4.175487    2.207390    9.968025    ( 0.0000,  0.0000,  0.0000)
   2 Cu     0.268779    0.005327   10.035957    ( 0.0000,  0.0000,  0.0000)
   3 Cu     1.563079    2.250160   10.040939    ( 0.0000,  0.0000,  0.0000)
   4 Cu     2.905835    3.013667   12.132731    ( 0.0000,  0.0000,  0.0000)
   5 Cu     1.587256    0.751197   12.155983    ( 0.0000,  0.0000,  0.0000)
   6 Cu     5.501600    3.021336   12.124235    ( 0.0000,  0.0000,  0.0000)
   7 Cu     4.203724    0.772150   12.120007    ( 0.0000,  0.0000,  0.0000)
   8 Cu     5.509809    1.511263   14.273560    ( 0.0000,  0.0000,  0.0000)
   9 Cu     6.817749    3.779201   14.272965    ( 0.0000,  0.0000,  0.0000)
  10 Cu     2.895657    1.507106   14.282845    ( 0.0000,  0.0000,  0.0000)
  11 Cu     4.204745    3.779097   14.275593    ( 0.0000,  0.0000,  0.0000)
  12 Cu     2.898323   -0.006205   16.439255    ( 0.0000,  0.0000,  0.0000)
  13 Cu     4.202828    2.263486   16.411249    ( 0.0000,  0.0000,  0.0000)
  14 Cu     0.271173   -0.001683   16.415015    ( 0.0000,  0.0000,  0.0000)
  15 Cu     1.580207    2.267720   16.418056    ( 0.0000,  0.0000,  0.0000)
  16 Cu     2.898773    3.019517   18.534881    ( 0.0000,  0.0000,  0.0000)
  17 Cu     1.574509    0.759578   18.535562    ( 0.0000,  0.0000,  0.0000)
  18 Cu     5.517461    3.017381   18.557838    ( 0.0000,  0.0000,  0.0000)
  19 Cu     4.218777    0.769327   18.565915    ( 0.0000,  0.0000,  0.0000)
  20 Cu     5.482458    1.472743   20.721328    ( 0.0000,  0.0000,  0.0000)
  21 Cu     6.840691    3.826186   20.718062    ( 0.0000,  0.0000,  0.0000)
  22 Cu     2.872766    1.512688   20.651496    ( 0.0000,  0.0000,  0.0000)
  23 Cu     4.179191    3.794081   20.647081    ( 0.0000,  0.0000,  0.0000)
  24 Cu     5.533098    4.559222    9.954112    ( 0.0000,  0.0000,  0.0000)
  25 Cu     2.867968    4.534051   10.029210    ( 0.0000,  0.0000,  0.0000)
  26 Cu     4.213127    5.276205   12.126541    ( 0.0000,  0.0000,  0.0000)
  27 Cu     6.799507    5.268601   12.115394    ( 0.0000,  0.0000,  0.0000)
  28 Cu     8.121886    6.047639   14.244202    ( 0.0000,  0.0000,  0.0000)
  29 Cu     5.516666    6.046671   14.278211    ( 0.0000,  0.0000,  0.0000)
  30 Cu     5.511110    4.531825   16.410270    ( 0.0000,  0.0000,  0.0000)
  31 Cu     2.888634    4.532926   16.406558    ( 0.0000,  0.0000,  0.0000)
  32 Cu     4.204789    5.283723   18.534523    ( 0.0000,  0.0000,  0.0000)
  33 Cu     6.814487    5.265823   18.565627    ( 0.0000,  0.0000,  0.0000)
  34 Cu     8.131354    6.045561   20.650058    ( 0.0000,  0.0000,  0.0000)
  35 Cu     5.501317    6.065983   20.648502    ( 0.0000,  0.0000,  0.0000)
  36 Cu     5.515639   -0.030915   10.037620    ( 0.0000,  0.0000,  0.0000)
  37 Cu     6.838300    2.241957   10.038361    ( 0.0000,  0.0000,  0.0000)
  38 Cu     8.121401    3.021170   12.150082    ( 0.0000,  0.0000,  0.0000)
  39 Cu     6.815400    0.755845   12.149679    ( 0.0000,  0.0000,  0.0000)
  40 Cu     8.132578    1.510559   14.278234    ( 0.0000,  0.0000,  0.0000)
  41 Cu     9.440817    3.775125   14.268637    ( 0.0000,  0.0000,  0.0000)
  42 Cu     5.504098   -0.004613   16.403245    ( 0.0000,  0.0000,  0.0000)
  43 Cu     6.816730    2.264183   16.407976    ( 0.0000,  0.0000,  0.0000)
  44 Cu     8.113114    3.026556   18.553628    ( 0.0000,  0.0000,  0.0000)
  45 Cu     6.806143    0.763216   18.553497    ( 0.0000,  0.0000,  0.0000)
  46 Cu     8.148557    1.500971   20.654047    ( 0.0000,  0.0000,  0.0000)
  47 Cu     9.453486    3.785452   20.645604    ( 0.0000,  0.0000,  0.0000)
  48 Cu     8.143342    4.522704   10.030314    ( 0.0000,  0.0000,  0.0000)
  49 Cu     9.444142    5.279553   12.148158    ( 0.0000,  0.0000,  0.0000)
  50 Cu    10.750397    6.043904   14.266863    ( 0.0000,  0.0000,  0.0000)
  51 Cu     8.125450    4.536072   16.403731    ( 0.0000,  0.0000,  0.0000)
  52 Cu     9.432612    5.289470   18.528114    ( 0.0000,  0.0000,  0.0000)
  53 Cu    10.748665    6.030225   20.646267    ( 0.0000,  0.0000,  0.0000)
  54 Cl     6.147134    2.664301   22.667231    ( 0.0000,  0.0000,  0.0000)
  55 Cl     4.853098    3.366848    8.014863    ( 0.0000,  0.0000,  0.0000)
  56 Cl    10.101076    4.907838   23.055936    ( 0.0000,  0.0000,  0.0000)
  57 Cl     0.915929    1.127744    7.628448    ( 0.0000,  0.0000,  0.0000)

Unit cell:
           periodic     x           y           z      points  spacing
  1. axis:    yes    7.851007    0.000000    0.000000    45     0.1511
  2. axis:    yes    3.925503    6.799171    0.000000    45     0.1511
  3. axis:    yes    0.000000    0.000000   30.683867   175     0.1753

  Lengths:   7.851007   7.851006  30.683867
  Angles:   90.000000  90.000000  60.000001

Effective grid spacing dv^(1/3) = 0.1666

     iter     time        total  log10-change:
                         energy  eigst   dens
iter:   1 09:53:42 -4324.373549
iter:   2 09:54:25 -4298.152253  -0.17  -1.01
iter:   3 09:55:08 -4263.900069  -0.61  -1.15
iter:   4 09:55:50 -4242.947586  -1.62  -1.28
iter:   5 09:56:33 -4237.852557  -1.61  -1.44
iter:   6 09:57:28 -4239.839969  -1.94  -1.57
iter:   7 09:58:24 -4238.408513  -2.18  -1.66
iter:   8 09:59:23 -4237.279883  -2.19  -1.79
iter:   9 10:00:10 -4236.521861  -2.18  -1.97
iter:  10 10:00:53 -4236.071468  -2.29  -2.16
iter:  11 10:01:36 -4236.014020  -3.86  -2.64
iter:  12 10:02:20 -4236.011033c -4.19  -2.76
iter:  13 10:03:03 -4235.982043c -3.48  -2.83
iter:  14 10:03:46 -4235.958962c -4.31  -2.92
iter:  15 10:04:30 -4235.956196c -5.10  -3.09
iter:  16 10:05:14 -4235.954053c -4.67  -3.15
iter:  17 10:05:57 -4235.955783c -4.63  -3.21
iter:  18 10:06:40 -4235.954273c -5.56  -3.57
iter:  19 10:07:23 -4235.953113c -5.00  -3.66
iter:  20 10:08:07 -4235.952989c -6.16  -3.83
iter:  21 10:08:50 -4235.952924c -6.70  -3.91
iter:  22 10:09:33 -4235.952906c -6.68  -3.95
iter:  23 10:10:21 -4235.952892c -6.30  -4.01c
iter:  24 10:11:05 -4235.952899c -7.04  -4.16c
iter:  25 10:11:48 -4235.952924c -7.03  -4.19c
iter:  26 10:12:32 -4235.952899c -6.65  -4.25c
iter:  27 10:13:16 -4235.952874c -7.32  -4.56c
iter:  28 10:14:00 -4235.952852c -7.53c -4.77c

Converged after 28 iterations.

Dipole moment: (-10.524199, 1.021147, -0.001038) |e|*Ang

Energy contributions relative to reference atoms: (reference = -2481378.197003)

Kinetic:       +402.202416
Potential:     -446.988051
External:        +0.000000
XC:            -4190.172334
Entropy (-ST):   -0.544827
Local:           -0.722469
Free energy:   -4236.225265
Extrapolated:  -4235.952852

Showing only first 2 kpts
 Kpt  Band  Eigenvalues  Occupancy
  0   309     -0.30520    1.27875
  0   310     -0.22400    0.88090
  0   311     -0.18533    0.69683
  0   312      0.03558    0.11091

  1   309     -0.84419    1.99487
  1   310     -0.69330    1.97700
  1   311     -0.40713    1.66179
  1   312     -0.30073    1.25802

Fermi level: -0.24793

No gap

Forces in eV/Ang:
  0 Cu    0.06679   -0.03586   -0.08383
  1 Cu    0.08771    0.04996   -0.08282
  2 Cu    0.03615    0.03739   -0.55085
  3 Cu   -0.01342   -0.03397   -0.56196
  4 Cu   -0.06105   -0.05990   -0.06176
  5 Cu   -0.01675    0.00437    0.00592
  6 Cu    0.03248   -0.01156   -0.01026
  7 Cu   -0.03123    0.01025   -0.03406
  8 Cu    0.00734   -0.00616   -0.00588
  9 Cu    0.00699   -0.00370   -0.00319
 10 Cu   -0.01322   -0.01777    0.01114
 11 Cu   -0.00322    0.00126   -0.04071
 12 Cu   -0.00052   -0.00167    0.01021
 13 Cu   -0.00591    0.00297    0.00165
 14 Cu    0.00483    0.00010   -0.00639
 15 Cu    0.00563   -0.00307   -0.01423
 16 Cu   -0.03199    0.04868    0.05256
 17 Cu   -0.00477    0.00359    0.00926
 18 Cu   -0.03383    0.01506    0.01629
 19 Cu    0.02112   -0.02520    0.03597
 20 Cu    0.00075    0.09905    0.07519
 21 Cu   -0.08854   -0.05159    0.08473
 22 Cu    0.01272   -0.06452   -0.02651
 23 Cu    0.08883   -0.05474    0.14178
 24 Cu    0.00495   -0.08696   -0.05868
 25 Cu    0.02478   -0.01040   -0.02177
 26 Cu    0.02062    0.07741   -0.05653
 27 Cu   -0.02495    0.02501   -0.03595
 28 Cu    0.00037    0.00149   -0.00934
 29 Cu    0.00563    0.00952    0.02256
 30 Cu   -0.00811    0.00211    0.00512
 31 Cu   -0.00153   -0.00299   -0.02784
 32 Cu   -0.05507    0.00269    0.05097
 33 Cu    0.03212   -0.00518    0.03070
 34 Cu   -0.06419    0.03812    0.08391
 35 Cu    0.06225    0.01334   -0.01536
 36 Cu   -0.06082   -0.00906    0.01195
 37 Cu   -0.08643    0.05169   -0.14174
 38 Cu    0.02772   -0.05221   -0.05119
 39 Cu    0.05276   -0.00304   -0.05090
 40 Cu    0.00126   -0.00183    0.02556
 41 Cu   -0.00800    0.00216    0.01060
 42 Cu   -0.00583   -0.00862   -0.01959
 43 Cu    0.00114   -0.00413    0.04124
 44 Cu    0.06342    0.05683    0.05956
 45 Cu   -0.01801   -0.07936    0.06114
 46 Cu   -0.02470    0.01154    0.02004
 47 Cu    0.01584    0.03743    0.55936
 48 Cu   -0.01083    0.06590    0.03043
 49 Cu    0.00678   -0.00577   -0.00834
 50 Cu   -0.00818   -0.00087    0.01134
 51 Cu    0.00990    0.01257   -0.01663
 52 Cu    0.01410   -0.00975   -0.00299
 53 Cu   -0.03605   -0.03559    0.55065
 54 Cl    0.00183   -0.00947   -0.28528
 55 Cl   -0.00104    0.01736    0.27754
 56 Cl    0.00383    0.00142   -1.39076
 57 Cl   -0.00544   -0.00391    1.38900

System changes: positions

[...]

Density initialized from wave functions

[...]

                       Cl            Cu
                        Cu    Cu
                   Cu     Cu    Cu
               Cu    Cu     Cu
                    Cu     Cu    Cu
                Cu    Cu    Cu
           Cu    Cu     Cu
                Cu     Cu    Cu
            Cu    Cu     Cu
       Cu     Cu    Cu  Cu    Cu     Cu
                   Cu     Cu    Cu
               Cu    Cu     Cu
                    Cu     Cu    Cu
                Cu    Cu    Cu
           Cu    Cu     Cu
                Cu     Cu    Cu
            Cu    Cu     Cu
              Cu    Cu
       Cu            Cl

[...]

                       Clu    Cu     Cu
                   Cu     Cu    Cu

               Cu   CCu    CCu   Cu

               Cu     Cu     Cu
           Cu   CCu    CCu   Cu

            Cu    Cu    CCu   Cu     Cu
       Cu     Cu   CCu    Cu    Cu

               Cu   CCu    CCu   Cu
               Cu     Cu     Cu

           Cu   CCu    CCu   Cu

            Cu    Cu     Cu
       Cu     Cu    Cul

[...]

                       Clu    Cu     Cu
                          Cu    Cu
                   Cu
               Cu   CCu    CCu   Cu

[...]

           Cu   CCu    CCu   Cu
                         Cu
            Cu    Cu
       Cu     Cu    Cul

[...]

                       Clu    Cu     Cu
                          Cu    Cu
                   Cu
               Cu   CCu    CCu   Cu

                Cu    Cu     Cu
           Cu   CCu    CCu   Cu

[...]

               Cu   CCu    CCu   Cu
               Cu     Cu     Cu

           Cu   CCu    CCu   Cu
                         Cu
            Cu    Cu
       Cu     Cu    Cul

[...]

               Cu   CCu    CCu   Cu
                             Cu
                Cu    Cu
           Cu   CCu    CCu   Cu

[...]

               Cu   CCu    CCu   Cu
                      Cu    Cu
               Cu
           Cu   CCu    CCu   Cu

[...]

System changes: positions

Initializing position-dependent things.

Density initialized from wave functions

[...]

                       Clu    Cu     Cu
                   Cu     Cu    Cu

               Cu   CCu    CCu   Cu
                             Cu
                Cu    Cu
           Cu   CCu    CCu   Cu

            Cu    Cu    CCu   Cu     Cu
       Cu     Cu   CCu    Cu    Cu

               Cu   CCu    CCu   Cu
                      Cu    Cu
               Cu
           Cu   CCu    CCu   Cu

            Cu    Cu     Cu
       Cu     Cu    Cul

         Cl

Positions:
   0 Cu     2.910658   -0.020105   10.039098    ( 0.0000,  0.0000,  0.0000)
   1 Cu     4.204327    2.207764    9.972735    ( 0.0000,  0.0000,  0.0000)
   2 Cu     0.250466   -0.034768    9.981783    ( 0.0000,  0.0000,  0.0000)
   3 Cu     1.592052    2.296043    9.977256    ( 0.0000,  0.0000,  0.0000)
   4 Cu     2.890869    2.999320   12.104067    ( 0.0000,  0.0000,  0.0000)
   5 Cu     1.579969    0.753872   12.130855    ( 0.0000,  0.0000,  0.0000)
   6 Cu     5.511556    3.017140   12.129532    ( 0.0000,  0.0000,  0.0000)
   7 Cu     4.202400    0.775273   12.123854    ( 0.0000,  0.0000,  0.0000)
   8 Cu     5.514718    1.508752   14.279422    ( 0.0000,  0.0000,  0.0000)
   9 Cu     6.820697    3.773848   14.280815    ( 0.0000,  0.0000,  0.0000)
  10 Cu     2.889921    1.504008   14.272663    ( 0.0000,  0.0000,  0.0000)
  11 Cu     4.198450    3.779448   14.250424    ( 0.0000,  0.0000,  0.0000)
  12 Cu     2.896175   -0.006432   16.431354    ( 0.0000,  0.0000,  0.0000)
  13 Cu     4.198843    2.266560   16.403275    ( 0.0000,  0.0000,  0.0000)
  14 Cu     0.269898   -0.003385   16.414325    ( 0.0000,  0.0000,  0.0000)
  15 Cu     1.581260    2.268659   16.414158    ( 0.0000,  0.0000,  0.0000)
  16 Cu     2.888985    3.028079   18.552711    ( 0.0000,  0.0000,  0.0000)
  17 Cu     1.570062    0.761440   18.522530    ( 0.0000,  0.0000,  0.0000)
  18 Cu     5.507043    3.021546   18.554648    ( 0.0000,  0.0000,  0.0000)
  19 Cu     4.220413    0.766879   18.559243    ( 0.0000,  0.0000,  0.0000)
  20 Cu     5.464987    1.489053   20.709983    ( 0.0000,  0.0000,  0.0000)
  21 Cu     6.814342    3.828084   20.711705    ( 0.0000,  0.0000,  0.0000)
  22 Cu     2.874388    1.489136   20.635328    ( 0.0000,  0.0000,  0.0000)
  23 Cu     4.195217    3.781249   20.655981    ( 0.0000,  0.0000,  0.0000)
  24 Cu     5.553589    4.546634    9.972831    ( 0.0000,  0.0000,  0.0000)
  25 Cu     2.867881    4.540388   10.031658    ( 0.0000,  0.0000,  0.0000)
  26 Cu     4.216821    5.294425   12.104674    ( 0.0000,  0.0000,  0.0000)
  27 Cu     6.798059    5.271581   12.124179    ( 0.0000,  0.0000,  0.0000)
  28 Cu     8.123440    6.046537   14.251895    ( 0.0000,  0.0000,  0.0000)
  29 Cu     5.513563    6.047451   14.273308    ( 0.0000,  0.0000,  0.0000)
  30 Cu     5.504707    4.531550   16.404580    ( 0.0000,  0.0000,  0.0000)
  31 Cu     2.888550    4.531599   16.408153    ( 0.0000,  0.0000,  0.0000)
  32 Cu     4.192722    5.286297   18.552257    ( 0.0000,  0.0000,  0.0000)
  33 Cu     6.816118    5.263269   18.559931    ( 0.0000,  0.0000,  0.0000)
  34 Cu     8.107118    6.056514   20.644377    ( 0.0000,  0.0000,  0.0000)
  35 Cu     5.519602    6.070376   20.636683    ( 0.0000,  0.0000,  0.0000)
  36 Cu     5.498598   -0.033604   10.047217    ( 0.0000,  0.0000,  0.0000)
  37 Cu     6.823150    2.255288   10.029687    ( 0.0000,  0.0000,  0.0000)
  38 Cu     8.129916    3.010729   12.131789    ( 0.0000,  0.0000,  0.0000)
  39 Cu     6.825941    0.751949   12.132166    ( 0.0000,  0.0000,  0.0000)
  40 Cu     8.130955    1.508675   14.276011    ( 0.0000,  0.0000,  0.0000)
  41 Cu     9.438173    3.771689   14.270178    ( 0.0000,  0.0000,  0.0000)
  42 Cu     5.505855   -0.007138   16.410417    ( 0.0000,  0.0000,  0.0000)
  43 Cu     6.821054    2.260936   16.433574    ( 0.0000,  0.0000,  0.0000)
  44 Cu     8.127653    3.039475   18.580012    ( 0.0000,  0.0000,  0.0000)
  45 Cu     6.801637    0.743955   18.578705    ( 0.0000,  0.0000,  0.0000)
  46 Cu     8.150510    1.496034   20.650276    ( 0.0000,  0.0000,  0.0000)
  47 Cu     9.425482    3.740357   20.706895    ( 0.0000,  0.0000,  0.0000)
  48 Cu     8.143466    4.547489   10.048190    ( 0.0000,  0.0000,  0.0000)
  49 Cu     9.449171    5.276792   12.160587    ( 0.0000,  0.0000,  0.0000)
  50 Cu    10.749449    6.043568   14.269686    ( 0.0000,  0.0000,  0.0000)
  51 Cu     8.129573    4.536381   16.411509    ( 0.0000,  0.0000,  0.0000)
  52 Cu     9.438741    5.284688   18.553035    ( 0.0000,  0.0000,  0.0000)
  53 Cu    10.767717    6.071834   20.701893    ( 0.0000,  0.0000,  0.0000)
  54 Cl     6.130722    2.664546   22.646486    ( 0.0000,  0.0000,  0.0000)
  55 Cl     4.867928    3.379954    8.037317    ( 0.0000,  0.0000,  0.0000)
  56 Cl    10.108931    4.904125   22.647760    ( 0.0000,  0.0000,  0.0000)
  57 Cl     0.908695    1.132632    8.035666    ( 0.0000,  0.0000,  0.0000)

Unit cell:
           periodic     x           y           z      points  spacing
  1. axis:    yes    7.851007    0.000000    0.000000    45     0.1511
  2. axis:    yes    3.925503    6.799171    0.000000    45     0.1511
  3. axis:    yes    0.000000    0.000000   30.683867   175     0.1753

  Lengths:   7.851007   7.851006  30.683867
  Angles:   90.000000  90.000000  60.000001

Effective grid spacing dv^(1/3) = 0.1666

     iter     time        total  log10-change:
                         energy  eigst   dens
iter:   1 12:04:20 -4237.204411  -2.80
iter:   2 12:05:05 -4236.759927  -3.11  -2.41
iter:   3 12:05:49 -4236.756368  -4.90  -3.35
iter:   4 12:06:33 -4236.757989c -4.86  -3.33
iter:   5 12:07:17 -4236.754195c -5.19  -3.40
iter:   6 12:08:01 -4236.753724c -5.91  -3.76
iter:   7 12:08:52 -4236.753640c -5.82  -3.85
iter:   8 12:09:36 -4236.753805c -6.03  -4.06c
iter:   9 12:10:20 -4236.753675c -6.54  -4.21c
iter:  10 12:11:16 -4236.753604c -6.43  -4.31c
iter:  11 12:12:12 -4236.753597c -7.29  -4.38c
iter:  12 12:12:56 -4236.753560c -6.88  -4.41c
iter:  13 12:13:40 -4236.753556c -7.90c -4.89c

Converged after 13 iterations.

Dipole moment: (-9.079882, 3.189983, 0.000387) |e|*Ang

Energy contributions relative to reference atoms: (reference = -2481378.197003)

Kinetic:       +413.913092
Potential:     -456.362539
External:        +0.000000
XC:            -4193.338935
Entropy (-ST):   -0.530680
Local:           -0.699835
Free energy:   -4237.018896
Extrapolated:  -4236.753556

Showing only first 2 kpts
 Kpt  Band  Eigenvalues  Occupancy
  0   309      0.04249    1.36389
  0   310      0.15132    0.83864
  0   311      0.17192    0.74032
  0   312      0.40239    0.11079

  1   309     -0.48609    1.99529
  1   310     -0.31640    1.97456
  1   311     -0.03706    1.65221
  1   312      0.10521    1.06768

Fermi level: 0.11877

No gap

Forces in eV/Ang:
  0 Cu    0.00801   -0.00088    0.00901
  1 Cu   -0.00075    0.00247    0.01151
  2 Cu   -0.00513   -0.01421    0.00693
  3 Cu    0.01207    0.01477    0.00690
  4 Cu   -0.00511    0.00002    0.00051
  5 Cu   -0.00459    0.00459    0.00764
  6 Cu    0.00320   -0.00049    0.00228
  7 Cu   -0.00339   -0.00265    0.00255
  8 Cu   -0.00355   -0.00086   -0.01810
  9 Cu   -0.00129    0.00326   -0.01779
 10 Cu    0.00533   -0.00057    0.01022
 11 Cu    0.00546   -0.00354   -0.00709
 12 Cu    0.00375   -0.00267    0.02340
 13 Cu    0.00049   -0.00451    0.01757
 14 Cu   -0.00162    0.00005    0.00630
 15 Cu   -0.00123   -0.00029    0.00579
 16 Cu   -0.00965    0.00517    0.00373
 17 Cu   -0.00054   -0.00107   -0.01100
 18 Cu   -0.00369    0.00045   -0.00267
 19 Cu   -0.00148   -0.00612   -0.00194
 20 Cu    0.00126   -0.00190   -0.01228
 21 Cu    0.00082   -0.00295   -0.01154
 22 Cu   -0.00652    0.01199   -0.00901
 23 Cu    0.01175   -0.00850   -0.01410
 24 Cu    0.00031    0.00412    0.01358
 25 Cu    0.00692   -0.00125    0.01081
 26 Cu   -0.00172    0.00609    0.00049
 27 Cu    0.00124    0.00566    0.00215
 28 Cu   -0.00426    0.00168   -0.02337
 29 Cu    0.00272   -0.00549    0.01026
 30 Cu    0.00313    0.00003    0.01811
 31 Cu    0.00421   -0.00337   -0.01127
 32 Cu   -0.01044    0.00332    0.00375
 33 Cu    0.00346    0.00241   -0.00279
 34 Cu   -0.00715    0.00187   -0.00862
 35 Cu   -0.01455   -0.00329   -0.00927
 36 Cu    0.01528    0.00407    0.00890
 37 Cu   -0.01075    0.00897    0.01536
 38 Cu    0.01030   -0.00588   -0.00373
 39 Cu    0.01061   -0.00386   -0.00354
 40 Cu   -0.00495    0.00237    0.01105
 41 Cu    0.00066   -0.00057   -0.00603
 42 Cu   -0.00354    0.00418   -0.01032
 43 Cu   -0.00613    0.00246    0.00745
 44 Cu    0.00502   -0.00065   -0.00132
 45 Cu    0.00189   -0.00598   -0.00096
 46 Cu   -0.00663    0.00224   -0.01109
 47 Cu   -0.01048   -0.01365   -0.00648
 48 Cu    0.00741   -0.01183    0.00890
 49 Cu    0.00057    0.00079    0.01066
 50 Cu    0.00123   -0.00113   -0.00627
 51 Cu   -0.00606   -0.00050   -0.01070
 52 Cu    0.00455   -0.00410   -0.00819
 53 Cu    0.00568    0.01354   -0.00617
 54 Cl   -0.01551    0.00475   -0.00853
 55 Cl    0.01136    0.00147    0.00775
 56 Cl    0.00579   -0.00544   -0.00445
 57 Cl   -0.00531    0.00587    0.00445