User:   thorkong@node026.cluster
Date:   Mon Oct 17 09:49:18 2022
Arch:   x86_64
Pid:    34120
Python: 3.10.5
gpaw:   /groups/kemi/thorkong/miniconda3/envs/gpaw22/lib/python3.10/site-packages/gpaw
_gpaw:  /groups/kemi/thorkong/miniconda3/envs/gpaw22/lib/python3.10/site-packages/
        _gpaw.cpython-310-x86_64-linux-gnu.so
ase:    /groups/kemi/thorkong/miniconda3/envs/gpaw22/lib/python3.10/site-packages/ase (version 3.22.1)
numpy:  /groups/kemi/thorkong/miniconda3/envs/gpaw22/lib/python3.10/site-packages/numpy (version 1.23.0)
scipy:  /groups/kemi/thorkong/miniconda3/envs/gpaw22/lib/python3.10/site-packages/scipy (version 1.8.1)
units:  Angstrom and eV
cores: 32
OpenMP: True
OMP_NUM_THREADS: 1

Input parameters:
  basis: dzp
  kpts: [4 4 1]
  mode: {ecut: 600.0,
         name: pw}
  xc: BEEF-vdW

System changes: positions, numbers, cell, pbc, initial_charges, initial_magmoms

Initialize ...

Cu-setup:
  name: Copper
  id: f1c4d45d90492f1bbfdcb091e8418fdf
  Z: 29.0
  valence: 11
  core: 18
  charge: 0.0
  file: /groups/kemi/thorkong/miniconda3/envs/gpaw22/share/gpaw/Cu.PBE.gz
  compensation charges: gauss, rc=0.33, lmax=2
  cutoffs: 2.06(filt), 2.43(core),
  valence states:
                energy  radius
    4s(1.00)    -4.609   1.164
    4p(0.00)    -0.698   1.164
    3d(10.00)    -5.039   1.058
    *s          22.603   1.164
    *p          26.513   1.164
    *d          22.172   1.058

  LCAO basis set for Cu:
    Name: dzp
    File: /groups/kemi/thorkong/miniconda3/envs/gpaw22/share/gpaw/Cu.dzp.basis.gz
    Number of radial functions: 5
    Number of spherical harmonics: 15
      l=0, rc=8.9688 Bohr: 4s-sz confined orbital
      l=2, rc=5.1719 Bohr: 3d-sz confined orbital
      l=0, rc=5.3281 Bohr: 4s-dz split-valence wave
      l=2, rc=3.1406 Bohr: 3d-dz split-valence wave
      l=1, rc=8.9688 Bohr: p-type Gaussian polarization

Cl-setup:
  name: Chlorine
  id: 726897f06f34e53cf8e33b5885a02604
  Z: 17.0
  valence: 7
  core: 10
  charge: 0.0
  file: /groups/kemi/thorkong/miniconda3/envs/gpaw22/share/gpaw/Cl.PBE.gz
  compensation charges: gauss, rc=0.25, lmax=2
  cutoffs: 1.40(filt), 1.49(core),
  valence states:
                energy  radius
    3s(2.00)   -20.689   0.794
    3p(5.00)    -8.594   0.794
    *s           6.523   0.794
    *p          18.617   0.794
    *d           0.000   0.794

  LCAO basis set for Cl:
    Name: dzp
    File: /groups/kemi/thorkong/miniconda3/envs/gpaw22/share/gpaw/Cl.dzp.basis.gz
    Number of radial functions: 5
    Number of spherical harmonics: 13
      l=0, rc=5.1719 Bohr: 3s-sz confined orbital
      l=1, rc=6.2656 Bohr: 3p-sz confined orbital
      l=0, rc=2.8281 Bohr: 3s-dz split-valence wave
      l=1, rc=3.5156 Bohr: 3p-dz split-valence wave
      l=2, rc=6.2656 Bohr: d-type Gaussian polarization

Reference energy: -2531597.994586

Spin-paired calculation

Convergence criteria:
 Maximum [total energy] change in last 3 cyles: 0.0005 eV / electron
 Maximum integral of absolute [dens]ity change: 0.0001 electrons / valence electron
 Maximum integral of absolute [eigenst]ate change: 4e-08 eV^2 / valence electron
 Maximum number of scf [iter]ations: 333
 (Square brackets indicate name in SCF output, whereas a 'c' in
 the SCF output indicates the quantity has converged.)

Symmetries present (total): 1

  ( 1  0  0)
  ( 0  1  0)
  ( 0  0  1)

16 k-points: 4 x 4 x 1 Monkhorst-Pack grid
8 k-points in the irreducible part of the Brillouin zone
       k-points in crystal coordinates                weights
   0:     0.12500000   -0.37500000    0.00000000          2/16
   1:     0.12500000   -0.12500000    0.00000000          2/16
   2:     0.12500000    0.12500000    0.00000000          2/16
   3:     0.12500000    0.37500000    0.00000000          2/16
   4:     0.37500000   -0.37500000    0.00000000          2/16
   5:     0.37500000   -0.12500000    0.00000000          2/16
   6:     0.37500000    0.12500000    0.00000000          2/16
   7:     0.37500000    0.37500000    0.00000000          2/16

Wave functions: Plane wave expansion
  Cutoff energy: 600.000 eV
  Number of coefficients (min, max): 54614, 54705
  Pulay-stress correction: 0.000000 eV/Ang^3 (de/decut=0.000000)
  Using FFTW library
  ScaLapack parameters: grid=2x2, blocksize=64
  Wavefunction extrapolation:
    Improved wavefunction reuse through dual PAW basis

Occupation numbers: Fermi-Dirac: width=0.1000 eV

Eigensolver
   Davidson(niter=2)

Densities:
  Coarse grid: 45*45*175 grid
  Fine grid: 90*90*350 grid
  Total Charge: 0.000000

Density mixing:
  Method: separate
  Backend: pulay
  Linear mixing parameter: 0.05
  Mixing with 5 old densities
  Damping of long wave oscillations: 50

Hamiltonian:
  XC and Coulomb potentials evaluated on a 90*90*350 grid
  Using the BEEF-vdW Exchange-Correlation functional
  External potential:
    NoExternalPotential

XC parameters: BEEF-vdW with 2 nearest neighbor stencil

Total number of cores used: 32
Parallelization over k-points: 8
Domain decomposition: 1 x 1 x 4
                      2 x 2 x 8 (xc only)

Number of atoms: 62
Number of atomic orbitals: 914
Number of bands in calculation: 394
Number of valence electrons: 650
Bands to converge: occupied

... initialized

Initializing position-dependent things.

Density initialized from atomic densities
Creating initial wave functions:
  394 bands from LCAO basis set

                     Cl            Cl

                       Cl
            Cl          Cu    Cu     Cu
                   Cu     Cu    Cu
               Cu    Cu     Cu
                    Cu     Cu    Cu
                Cu    Cu    Cu
           Cu    Cu     Cu
                Cu     Cu    Cu
            Cu    Cu     Cu
       Cu     Cu        Cu    Cu     Cu
                   CCu    Cu    Cu
               Cu    Cu     Cu
                    Cu     Cu    Cu
                Cu    Cu    Cu
           Cu    Cu     Cu
                Cu     Cu    Cu
            Cu    Cu     Cu
       Cu     Cu    Cu          Cl
                     Cl

[...]

Positions:
   0 Cu     2.884162   -0.011729   10.033678    ( 0.0000,  0.0000,  0.0000)
   1 Cu     4.175487    2.207390    9.968025    ( 0.0000,  0.0000,  0.0000)
   2 Cu     0.268779    0.005327   10.035957    ( 0.0000,  0.0000,  0.0000)
   3 Cu     1.563079    2.250160   10.040939    ( 0.0000,  0.0000,  0.0000)
   4 Cu     2.905835    3.013667   12.132731    ( 0.0000,  0.0000,  0.0000)
   5 Cu     1.587256    0.751197   12.155983    ( 0.0000,  0.0000,  0.0000)
   6 Cu     5.501600    3.021336   12.124235    ( 0.0000,  0.0000,  0.0000)
   7 Cu     4.203724    0.772150   12.120007    ( 0.0000,  0.0000,  0.0000)
   8 Cu     5.509809    1.511263   14.273560    ( 0.0000,  0.0000,  0.0000)
   9 Cu     6.817749    3.779201   14.272965    ( 0.0000,  0.0000,  0.0000)
  10 Cu     2.895657    1.507106   14.282845    ( 0.0000,  0.0000,  0.0000)
  11 Cu     4.204745    3.779097   14.275593    ( 0.0000,  0.0000,  0.0000)
  12 Cu     2.898323   -0.006205   16.439255    ( 0.0000,  0.0000,  0.0000)
  13 Cu     4.202828    2.263486   16.411249    ( 0.0000,  0.0000,  0.0000)
  14 Cu     0.271173   -0.001683   16.415015    ( 0.0000,  0.0000,  0.0000)
  15 Cu     1.580207    2.267720   16.418056    ( 0.0000,  0.0000,  0.0000)
  16 Cu     2.898773    3.019517   18.534881    ( 0.0000,  0.0000,  0.0000)
  17 Cu     1.574509    0.759578   18.535562    ( 0.0000,  0.0000,  0.0000)
  18 Cu     5.517461    3.017381   18.557838    ( 0.0000,  0.0000,  0.0000)
  19 Cu     4.218777    0.769327   18.565915    ( 0.0000,  0.0000,  0.0000)
  20 Cu     5.482458    1.472743   20.721328    ( 0.0000,  0.0000,  0.0000)
  21 Cu     6.840691    3.826186   20.718062    ( 0.0000,  0.0000,  0.0000)
  22 Cu     2.872766    1.512688   20.651496    ( 0.0000,  0.0000,  0.0000)
  23 Cu     4.179191    3.794081   20.647081    ( 0.0000,  0.0000,  0.0000)
  24 Cu     5.533098    4.559222    9.954112    ( 0.0000,  0.0000,  0.0000)
  25 Cu     2.867968    4.534051   10.029210    ( 0.0000,  0.0000,  0.0000)
  26 Cu     4.213127    5.276205   12.126541    ( 0.0000,  0.0000,  0.0000)
  27 Cu     6.799507    5.268601   12.115394    ( 0.0000,  0.0000,  0.0000)
  28 Cu     8.121886    6.047639   14.244202    ( 0.0000,  0.0000,  0.0000)
  29 Cu     5.516666    6.046671   14.278211    ( 0.0000,  0.0000,  0.0000)
  30 Cu     5.511110    4.531825   16.410270    ( 0.0000,  0.0000,  0.0000)
  31 Cu     2.888634    4.532926   16.406558    ( 0.0000,  0.0000,  0.0000)
  32 Cu     4.204789    5.283723   18.534523    ( 0.0000,  0.0000,  0.0000)
  33 Cu     6.814487    5.265823   18.565627    ( 0.0000,  0.0000,  0.0000)
  34 Cu     8.131354    6.045561   20.650058    ( 0.0000,  0.0000,  0.0000)
  35 Cu     5.501317    6.065983   20.648502    ( 0.0000,  0.0000,  0.0000)
  36 Cu     5.515639   -0.030915   10.037620    ( 0.0000,  0.0000,  0.0000)
  37 Cu     6.838300    2.241957   10.038361    ( 0.0000,  0.0000,  0.0000)
  38 Cu     8.121401    3.021170   12.150082    ( 0.0000,  0.0000,  0.0000)
  39 Cu     6.815400    0.755845   12.149679    ( 0.0000,  0.0000,  0.0000)
  40 Cu     8.132578    1.510559   14.278234    ( 0.0000,  0.0000,  0.0000)
  41 Cu     9.440817    3.775125   14.268637    ( 0.0000,  0.0000,  0.0000)
  42 Cu     5.504098   -0.004613   16.403245    ( 0.0000,  0.0000,  0.0000)
  43 Cu     6.816730    2.264183   16.407976    ( 0.0000,  0.0000,  0.0000)
  44 Cu     8.113114    3.026556   18.553628    ( 0.0000,  0.0000,  0.0000)
  45 Cu     6.806143    0.763216   18.553497    ( 0.0000,  0.0000,  0.0000)
  46 Cu     8.148557    1.500971   20.654047    ( 0.0000,  0.0000,  0.0000)
  47 Cu     9.453486    3.785452   20.645604    ( 0.0000,  0.0000,  0.0000)
  48 Cu     8.143342    4.522704   10.030314    ( 0.0000,  0.0000,  0.0000)
  49 Cu     9.444142    5.279553   12.148158    ( 0.0000,  0.0000,  0.0000)
  50 Cu    10.750397    6.043904   14.266863    ( 0.0000,  0.0000,  0.0000)
  51 Cu     8.125450    4.536072   16.403731    ( 0.0000,  0.0000,  0.0000)
  52 Cu     9.432612    5.289470   18.528114    ( 0.0000,  0.0000,  0.0000)
  53 Cu    10.748665    6.030225   20.646267    ( 0.0000,  0.0000,  0.0000)
  54 Cl     6.147134    2.664301   22.667231    ( 0.0000,  0.0000,  0.0000)
  55 Cl     4.853098    3.366848    8.014863    ( 0.0000,  0.0000,  0.0000)
  56 Cl    10.101076    4.907838   23.055936    ( 0.0000,  0.0000,  0.0000)
  57 Cl     0.915929    1.127744    7.628448    ( 0.0000,  0.0000,  0.0000)
  58 Cl     8.857645    5.743262    7.623330    ( 0.0000,  0.0000,  0.0000)
  59 Cl     2.077612    0.292715   23.096412    ( 0.0000,  0.0000,  0.0000)
  60 Cl     4.840254    4.930032   23.057792    ( 0.0000,  0.0000,  0.0000)
  61 Cl     6.176970    1.105521    7.627990    ( 0.0000,  0.0000,  0.0000)

Unit cell:
           periodic     x           y           z      points  spacing
  1. axis:    yes    7.851007    0.000000    0.000000    45     0.1511
  2. axis:    yes    3.925503    6.799171    0.000000    45     0.1511
  3. axis:    yes    0.000000    0.000000   30.683867   175     0.1753

  Lengths:   7.851007   7.851006  30.683867
  Angles:   90.000000  90.000000  60.000001

Effective grid spacing dv^(1/3) = 0.1666

[...]
                    Cu     Cu    Cu
               Cu     Cu     Cu
           Cu    Cu     Cu
                Cu     Cu    Cu
            Cu    Cu     Cu
       Cu     Cu    Cu  Cu    Cu     Cu
                   Cu     Cu    Cu
               Cu    Cu     Cu
                    Cu     Cu    Cu
               Cu     Cu     Cu
           Cu    Cu     Cu
                Cu     Cu    Cu
            Cu    Cu     Cu
       Cu     Cu    Cu         Cl

[...]

     iter     time        total  log10-change:
                         energy  eigst   dens
iter:   1 11:03:51 -4407.340284  -1.33
iter:   2 11:04:38 -4394.256665  -1.02  -1.38
iter:   3 11:05:35 -4382.284162  -1.97  -1.75
iter:   4 11:06:30 -4381.833994  -3.19  -2.18
iter:   5 11:07:56 -4381.661339  -3.59  -2.25
iter:   6 11:08:57 -4381.042533  -2.40  -2.26
iter:   7 11:09:47 -4380.884537  -3.59  -2.32
iter:   8 11:10:49 -4380.915662c -3.50  -2.57
iter:   9 11:11:49 -4380.849717c -3.97  -2.63
iter:  10 11:12:44 -4380.829418c -4.74  -2.76
iter:  11 11:13:32 -4380.810758c -4.56  -2.79
iter:  12 11:14:26 -4380.789666c -4.24  -2.85
iter:  13 11:15:23 -4380.783868c -4.35  -2.84
iter:  14 11:16:16 -4380.784073c -5.31  -2.93
iter:  15 11:17:26 -4380.783336c -4.30  -2.96
iter:  16 11:18:18 -4380.775169c -5.09  -2.92
iter:  17 11:19:14 -4380.758897c -5.27  -3.10
iter:  18 11:19:54 -4380.757051c -6.07  -3.49
iter:  19 11:20:39 -4380.756574c -5.24  -3.53
iter:  20 11:21:30 -4380.756340c -5.97  -3.63
iter:  21 11:22:15 -4380.755932c -6.88  -3.92
iter:  22 11:23:09 -4380.756154c -6.52  -3.99
iter:  23 11:24:02 -4380.756047c -7.25  -4.02c
iter:  24 11:25:00 -4380.756214c -6.66  -4.18c
iter:  25 11:25:53 -4380.756032c -7.31  -4.18c
iter:  26 11:26:45 -4380.756064c -8.33c -4.49c

[...]

                     Cl
                                 Cl

             Cl         Cl    Cu     Cu
                   Cu     Cu    Cu
               Cu    Cu     Cu
                    Cu     Cu    Cu
               Cu     Cu     Cu
           Cu    Cu     Cu
                Cu     Cu    Cu
            Cu    Cu     Cu
              Cu        Cu    Cu     Cu
       Cu          CCu    Cu    Cu
               Cu    Cu     Cu
                    Cu     Cu    Cu
               Cu     Cu     Cu
           Cu    Cu     Cu
                Cu     Cu    Cu
            Cu    Cu     Cu
       Cu     Cu    Cl         Cl
                    Cu
           Cl
                       Cl

[...]

                     Cl
                                 Cl
                        Cu           Cu
             Cl         Cl    Cu
                   Cu     Cu    Cu
               Cu    Cu     Cu
                    Cu     Cu    Cu
               Cu     Cu     Cu
           Cu    Cu     Cu
                Cu     Cu    Cu
            Cu    Cu     Cu
              Cu    Cu  Cu    Cu     Cu
       Cu          Cu     Cu    Cu
               Cu    Cu     Cu
                    Cu     Cu    Cu
               Cu     Cu     Cu
           Cu    Cu     Cu
                Cu     Cu    Cu
            Cu    Cu     Cu
              Cu    Cl         Cl
       Cu           Cu
           Cl
                       Cl

[...]

     iter     time        total  log10-change:
                         energy  eigst   dens
iter:   1 11:54:31 -4401.768005  -1.30
iter:   2 11:56:23 -4390.728685  -1.17  -1.46
iter:   3 11:58:01 -4383.493384  -2.20  -1.87
iter:   4 11:58:56 -4383.345627  -3.28  -2.36
iter:   5 12:00:18 -4383.536300c -3.12  -2.39
iter:   6 12:01:11 -4382.950946  -2.72  -2.32
iter:   7 12:02:00 -4382.890247  -3.71  -2.75
iter:   8 12:02:55 -4382.877139c -3.80  -2.87
iter:   9 12:03:52 -4382.869810c -4.50  -3.03
iter:  10 12:04:39 -4382.868839c -4.21  -3.15
iter:  11 12:05:35 -4382.867281c -5.31  -3.45
iter:  12 12:06:31 -4382.866713c -4.84  -3.50
iter:  13 12:07:17 -4382.866073c -4.95  -3.47
iter:  14 12:08:18 -4382.866076c -5.80  -3.68
iter:  15 12:09:18 -4382.864952c -5.76  -3.80
iter:  16 12:10:13 -4382.864319c -5.32  -3.92
iter:  17 12:11:12 -4382.864319c -6.78  -4.21c
iter:  18 12:12:09 -4382.864402c -6.40  -4.27c
iter:  19 12:13:07 -4382.864391c -7.28  -4.34c
iter:  20 12:14:01 -4382.864352c -6.38  -4.33c
iter:  21 12:15:02 -4382.864354c -7.67c -4.67c

[...]

                     Cl
                                 Cl
                        Cu    Cu     Cu
             Cl         Cl
                   Cu     Cu    Cu
               Cu    Cu     Cu
                    Cu     Cu    Cu
               Cu     Cu     Cu
           Cu    Cu     Cu
                Cu     Cu    Cu
            Cu    Cu     Cu
       Cu     Cu    Cu  Cu    Cu     Cu
                   Cu     Cu    Cu
               Cu    Cu     Cu
                    Cu     Cu    Cu
               Cu     Cu     Cu
           Cu    Cu     Cu
                Cu     Cu    Cu
            Cu    Cu     Cu
                    Cl        Cl
       Cu     Cu    Cu
           Cl
                       Cl

[...]

                        Cl    Cu     Cu
              Cl   Cu     Cu
                                Cu
               Cu   CCu    CCu   Cu
                Cu
                      Cu     Cu
           Cu   CCu    CCu   Cu

            Cu    Cu    CCu   Cu     Cu
       Cu     Cu   CCu    Cu    Cu

               Cu   CCu    CCu   Cu
               Cu     Cu
                            Cu
           Cu   CCu    CCu   Cu
            Cu
                  Cu     Cu   Cl
       Cu     Cu    Cu

[...]

                        Cl    Cu     Cu
              Cl   Cu     Cu
                                Cu
               Cu   CCu    CCu   Cu

                Cu    Cu     Cu
           Cu   CCu    CCu   Cu

[...]

               Cu   CCu    CCu   Cu
               Cu     Cu    Cu

           Cu   CCu    CCu   Cu
            Cu
                  Cu     Cu   Cl
       Cu     Cu    Cu

[...]

                        Cl    Cu     Cu
              Cl   Cu     Cu
                                Cu
               Cu   CCu    CCu   Cu

[...]

           Cu   CCu    CCu   Cu
            Cu
                  Cu     Cu   Cl
       Cu     Cu   CCu

[...]

                                Cl
                     Cl
                        Cl    Cu     Cu
              Cl          Cu
                   Cu           Cu
               Cu   CCu    CCu   Cu

[...]

           Cu   CCu    CCu   Cu
            Cu           Cu
                  Cu          Cl
       Cu     Cu   CCu

[...]

                                Cl
                     Cl
                        Cl    Cu     Cu
              Cl          Cu
                   Cu           Cu
               Cu   CCu    CCu   Cu

[...]

           Cu   CCu    CCu   Cu
            Cu           Cu
                  Cu          Cl
       Cu     Cu   CCu

            Cl         Cl

[...]

                                Cl
                     Cl
                        CCl   Cu     Cu
              Cl          Cu
                   Cu           Cu
               Cu   CCu    CCu   Cu

[...]

           Cu   CCu    CCu   Cu
            Cu           Cu
                  Cu          Cl
       Cu     Cu   CCu
                       Cl
            Cl

[...]

System changes: positions

Initializing position-dependent things.

Density initialized from wave functions

                                Cl
                     Cl
                        CCl   Cu     Cu
             Cl           Cu
                   Cu           Cu
               Cu   CCu    CCu   Cu

               Cu     Cu    Cu
           Cu   CCu    CCu   Cu

            Cu    Cu    CCu   Cu     Cu
       Cu     Cu   CCu    Cu    Cu

               Cu   CCu    CCu   Cu
                Cu    Cu     Cu

           Cu   CCu    CCu   Cu
            Cu           Cu
                  Cu          Cl
       Cu     Cu   CCu
                       Cl
            Cl

Positions:
   0 Cu     2.915843   -0.013545   10.013999    ( 0.0000,  0.0000,  0.0000)
   1 Cu     4.208452    2.278167    9.953360    ( 0.0000,  0.0000,  0.0000)
   2 Cu     0.281377    0.022437    9.939199    ( 0.0000,  0.0000,  0.0000)
   3 Cu     1.593708    2.295590   10.033664    ( 0.0000,  0.0000,  0.0000)
   4 Cu     2.899980    3.027847   12.120105    ( 0.0000,  0.0000,  0.0000)
   5 Cu     1.578852    0.752904   12.128173    ( 0.0000,  0.0000,  0.0000)
   6 Cu     5.514889    3.030006   12.139471    ( 0.0000,  0.0000,  0.0000)
   7 Cu     4.213034    0.771471   12.087769    ( 0.0000,  0.0000,  0.0000)
   8 Cu     5.515110    1.508629   14.261649    ( 0.0000,  0.0000,  0.0000)
   9 Cu     6.824713    3.779579   14.295677    ( 0.0000,  0.0000,  0.0000)
  10 Cu     2.894500    1.506790   14.252935    ( 0.0000,  0.0000,  0.0000)
  11 Cu     4.203364    3.784711   14.258902    ( 0.0000,  0.0000,  0.0000)
  12 Cu     2.888034   -0.009767   16.422528    ( 0.0000,  0.0000,  0.0000)
  13 Cu     4.193680    2.256740   16.389199    ( 0.0000,  0.0000,  0.0000)
  14 Cu     0.272533   -0.008680   16.407293    ( 0.0000,  0.0000,  0.0000)
  15 Cu     1.581055    2.255721   16.414102    ( 0.0000,  0.0000,  0.0000)
  16 Cu     2.887200    3.018331   18.541893    ( 0.0000,  0.0000,  0.0000)
  17 Cu     1.564998    0.730603   18.560069    ( 0.0000,  0.0000,  0.0000)
  18 Cu     5.503581    3.005566   18.545290    ( 0.0000,  0.0000,  0.0000)
  19 Cu     4.207471    0.740775   18.542550    ( 0.0000,  0.0000,  0.0000)
  20 Cu     5.487013    1.468694   20.647833    ( 0.0000,  0.0000,  0.0000)
  21 Cu     6.811014    3.755747   20.733717    ( 0.0000,  0.0000,  0.0000)
  22 Cu     2.911463    1.517677   20.586275    ( 0.0000,  0.0000,  0.0000)
  23 Cu     4.188219    3.735175   20.630688    ( 0.0000,  0.0000,  0.0000)
  24 Cu     5.531606    4.564326   10.031859    ( 0.0000,  0.0000,  0.0000)
  25 Cu     2.860804    4.560947   10.003189    ( 0.0000,  0.0000,  0.0000)
  26 Cu     4.200609    5.315781   12.114665    ( 0.0000,  0.0000,  0.0000)
  27 Cu     6.810396    5.295786   12.139821    ( 0.0000,  0.0000,  0.0000)
  28 Cu     8.130206    6.046102   14.262150    ( 0.0000,  0.0000,  0.0000)
  29 Cu     5.514834    6.043036   14.276414    ( 0.0000,  0.0000,  0.0000)
  30 Cu     5.503069    4.527337   16.423857    ( 0.0000,  0.0000,  0.0000)
  31 Cu     2.890681    4.525560   16.412882    ( 0.0000,  0.0000,  0.0000)
  32 Cu     4.192227    5.294378   18.572069    ( 0.0000,  0.0000,  0.0000)
  33 Cu     6.803859    5.262812   18.594490    ( 0.0000,  0.0000,  0.0000)
  34 Cu     8.103382    6.044678   20.656826    ( 0.0000,  0.0000,  0.0000)
  35 Cu     5.524032    6.057249   20.734219    ( 0.0000,  0.0000,  0.0000)
  36 Cu     5.496076   -0.024610    9.948558    ( 0.0000,  0.0000,  0.0000)
  37 Cu     6.830237    2.298848   10.054788    ( 0.0000,  0.0000,  0.0000)
  38 Cu     8.131401    3.018030   12.144331    ( 0.0000,  0.0000,  0.0000)
  39 Cu     6.826179    0.741022   12.113707    ( 0.0000,  0.0000,  0.0000)
  40 Cu     8.128146    1.510793   14.272147    ( 0.0000,  0.0000,  0.0000)
  41 Cu     9.436410    3.780100   14.275330    ( 0.0000,  0.0000,  0.0000)
  42 Cu     5.504365   -0.006655   16.410413    ( 0.0000,  0.0000,  0.0000)
  43 Cu     6.815801    2.251801   16.428298    ( 0.0000,  0.0000,  0.0000)
  44 Cu     8.119227    3.006845   18.573286    ( 0.0000,  0.0000,  0.0000)
  45 Cu     6.821761    0.720832   18.574378    ( 0.0000,  0.0000,  0.0000)
  46 Cu     8.163747    1.473570   20.700193    ( 0.0000,  0.0000,  0.0000)
  47 Cu     9.427919    3.740495   20.661450    ( 0.0000,  0.0000,  0.0000)
  48 Cu     8.113234    4.512357   10.098955    ( 0.0000,  0.0000,  0.0000)
  49 Cu     9.453176    5.304772   12.127387    ( 0.0000,  0.0000,  0.0000)
  50 Cu    10.745845    6.045079   14.278879    ( 0.0000,  0.0000,  0.0000)
  51 Cu     8.123656    4.528991   16.434117    ( 0.0000,  0.0000,  0.0000)
  52 Cu     9.441992    5.279844   18.556149    ( 0.0000,  0.0000,  0.0000)
  53 Cu    10.739037    6.012366   20.744835    ( 0.0000,  0.0000,  0.0000)
  54 Cl     6.770875    1.989572   22.536680    ( 0.0000,  0.0000,  0.0000)
  55 Cl     4.221476    4.050055    8.149923    ( 0.0000,  0.0000,  0.0000)
  56 Cl     9.089816    5.123019   22.552626    ( 0.0000,  0.0000,  0.0000)
  57 Cl     1.922932    0.943096    8.132361    ( 0.0000,  0.0000,  0.0000)
  58 Cl     8.380119    4.954962    7.950570    ( 0.0000,  0.0000,  0.0000)
  59 Cl     2.536586    1.149564   22.731821    ( 0.0000,  0.0000,  0.0000)
  60 Cl     4.721318    4.872002   22.580712    ( 0.0000,  0.0000,  0.0000)
  61 Cl     6.303664    1.163175    8.104207    ( 0.0000,  0.0000,  0.0000)

Unit cell:
           periodic     x           y           z      points  spacing
  1. axis:    yes    7.851007    0.000000    0.000000    45     0.1511
  2. axis:    yes    3.925503    6.799171    0.000000    45     0.1511
  3. axis:    yes    0.000000    0.000000   30.683867   175     0.1753

  Lengths:   7.851007   7.851006  30.683867
  Angles:   90.000000  90.000000  60.000001

Effective grid spacing dv^(1/3) = 0.1666

     iter     time        total  log10-change:
                         energy  eigst   dens
iter:   1 15:19:41 -4384.837897  -3.70
iter:   2 15:20:26 -4384.825410  -4.51  -3.19
iter:   3 15:21:17 -4384.825319c -5.44  -3.54
iter:   4 15:22:20 -4384.824293c -6.05  -3.57
iter:   5 15:23:25 -4384.824020c -5.18  -3.67
iter:   6 15:24:19 -4384.823844c -6.33  -4.10c
iter:   7 15:25:14 -4384.823828c -6.83  -4.16c
iter:   8 15:26:05 -4384.823854c -6.66  -4.26c
iter:   9 15:27:07 -4384.823838c -6.80  -4.42c
iter:  10 15:27:54 -4384.823834c -7.79c -4.60c

Converged after 10 iterations.

Dipole moment: (-9.968101, -3.375218, 0.003236) |e|*Ang

Energy contributions relative to reference atoms: (reference = -2531597.994586)

Kinetic:       +464.711859
Potential:     -500.630189
External:        +0.000000
XC:            -4347.986652
Entropy (-ST):   -0.515139
Local:           -0.661282
Free energy:   -4385.081404
Extrapolated:  -4384.823834

Showing only first 2 kpts
 Kpt  Band  Eigenvalues  Occupancy
  0   323      0.22173    1.09967
  0   324      0.29245    0.75167
  0   325      0.35668    0.48116
  0   326      0.43035    0.26335

  1   323     -0.22608    1.98158
  1   324     -0.20095    1.97638
  1   325      0.00425    1.82977
  1   326      0.08938    1.64208

Fermi level: 0.24173

No gap

Forces in eV/Ang:
  0 Cu    0.00409    0.00269    0.00887
  1 Cu   -0.00150   -0.00454   -0.00501
  2 Cu   -0.00649    0.00720   -0.01018
  3 Cu   -0.00482   -0.00715   -0.00436
  4 Cu    0.00261    0.00159    0.00584
  5 Cu   -0.00292   -0.00734    0.00822
  6 Cu    0.00073    0.00223    0.00110
  7 Cu   -0.00054   -0.00008    0.00677
  8 Cu   -0.00075   -0.00018   -0.00843
  9 Cu   -0.00104    0.00015    0.00239
 10 Cu    0.00339   -0.00133   -0.00340
 11 Cu    0.00572    0.00073    0.00045
 12 Cu   -0.00041   -0.00155    0.00800
 13 Cu    0.00070   -0.00044   -0.00028
 14 Cu    0.00379    0.00631   -0.00166
 15 Cu    0.00191   -0.00581   -0.00247
 16 Cu   -0.00136    0.00405   -0.00334
 17 Cu   -0.00398   -0.00470   -0.00105
 18 Cu   -0.00163   -0.00160   -0.00434
 19 Cu    0.00728   -0.00103   -0.00953
 20 Cu   -0.00568   -0.00081    0.00069
 21 Cu    0.00114    0.00383    0.00413
 22 Cu   -0.00137   -0.00908    0.00645
 23 Cu    0.00314    0.00250    0.00453
 24 Cu    0.00864   -0.00014    0.00035
 25 Cu    0.00666    0.00428   -0.00393
 26 Cu   -0.00577    0.00176   -0.00204
 27 Cu   -0.00626    0.00051    0.01160
 28 Cu    0.00161    0.00140   -0.00706
 29 Cu   -0.00248   -0.00113    0.00763
 30 Cu    0.00107    0.00024    0.00765
 31 Cu    0.00047   -0.00280    0.00501
 32 Cu   -0.00267   -0.00869   -0.01571
 33 Cu    0.00158    0.00023   -0.00786
 34 Cu   -0.00161   -0.00428   -0.00773
 35 Cu    0.00669    0.00416   -0.00328
 36 Cu   -0.00574   -0.00522   -0.00039
 37 Cu    0.00055   -0.00169   -0.00278
 38 Cu    0.00101   -0.00467    0.00582
 39 Cu    0.00239    0.00639    0.01122
 40 Cu   -0.00016    0.00067   -0.00217
 41 Cu   -0.00021    0.00734    0.00192
 42 Cu    0.00133    0.00122   -0.00659
 43 Cu   -0.00588   -0.00182   -0.00255
 44 Cu   -0.00178   -0.00219   -0.00829
 45 Cu    0.00650   -0.00179    0.00020
 46 Cu   -0.00748   -0.00514    0.00435
 47 Cu    0.00461    0.00783    0.00520
 48 Cu    0.00445    0.01282   -0.01919
 49 Cu    0.00325    0.00391    0.00342
 50 Cu   -0.00306   -0.00679    0.00212
 51 Cu   -0.00361    0.00120    0.00294
 52 Cu    0.00505    0.00692   -0.01176
 53 Cu    0.00657   -0.00754    0.01284
 54 Cl    0.00396    0.01004   -0.00083
 55 Cl   -0.00538   -0.00887    0.00606
 56 Cl   -0.00261    0.00330    0.01574
 57 Cl   -0.00026   -0.00466   -0.01484
 58 Cl    0.00058   -0.01842    0.01557
 59 Cl   -0.00598    0.01897    0.00282
 60 Cl   -0.01426   -0.00654    0.01371
 61 Cl    0.00988    0.00956   -0.01106