User:   thorkong@node030.cluster
Date:   Tue Mar 14 00:25:25 2023
Arch:   x86_64
Pid:    6600
Python: 3.10.5
gpaw:   /groups/kemi/thorkong/miniconda3/envs/gpaw22/lib/python3.10/site-packages/gpaw
_gpaw:  /groups/kemi/thorkong/miniconda3/envs/gpaw22/lib/python3.10/site-packages/
        _gpaw.cpython-310-x86_64-linux-gnu.so
ase:    /groups/kemi/thorkong/miniconda3/envs/gpaw22/lib/python3.10/site-packages/ase (version 3.22.1)
numpy:  /groups/kemi/thorkong/miniconda3/envs/gpaw22/lib/python3.10/site-packages/numpy (version 1.23.0)
scipy:  /groups/kemi/thorkong/miniconda3/envs/gpaw22/lib/python3.10/site-packages/scipy (version 1.8.1)
units:  Angstrom and eV
cores: 40
OpenMP: True
OMP_NUM_THREADS: 1

Input parameters:
  basis: dzp
  kpts: [4 4 1]
  mode: {ecut: 600.0,
         name: pw}
  xc: BEEF-vdW

System changes: positions, numbers, cell, pbc, initial_charges, initial_magmoms

Initialize ...

Cu-setup:
  name: Copper
  id: f1c4d45d90492f1bbfdcb091e8418fdf
  Z: 29.0
  valence: 11
  core: 18
  charge: 0.0
  file: /groups/kemi/thorkong/miniconda3/envs/gpaw22/share/gpaw/Cu.PBE.gz
  compensation charges: gauss, rc=0.33, lmax=2
  cutoffs: 2.06(filt), 2.43(core),
  valence states:
                energy  radius
    4s(1.00)    -4.609   1.164
    4p(0.00)    -0.698   1.164
    3d(10.00)    -5.039   1.058
    *s          22.603   1.164
    *p          26.513   1.164
    *d          22.172   1.058

  LCAO basis set for Cu:
    Name: dzp
    File: /groups/kemi/thorkong/miniconda3/envs/gpaw22/share/gpaw/Cu.dzp.basis.gz
    Number of radial functions: 5
    Number of spherical harmonics: 15
      l=0, rc=8.9688 Bohr: 4s-sz confined orbital
      l=2, rc=5.1719 Bohr: 3d-sz confined orbital
      l=0, rc=5.3281 Bohr: 4s-dz split-valence wave
      l=2, rc=3.1406 Bohr: 3d-dz split-valence wave
      l=1, rc=8.9688 Bohr: p-type Gaussian polarization

Cl-setup:
  name: Chlorine
  id: 726897f06f34e53cf8e33b5885a02604
  Z: 17.0
  valence: 7
  core: 10
  charge: 0.0
  file: /groups/kemi/thorkong/miniconda3/envs/gpaw22/share/gpaw/Cl.PBE.gz
  compensation charges: gauss, rc=0.25, lmax=2
  cutoffs: 1.40(filt), 1.49(core),
  valence states:
                energy  radius
    3s(2.00)   -20.689   0.794
    3p(5.00)    -8.594   0.794
    *s           6.523   0.794
    *p          18.617   0.794
    *d           0.000   0.794

  LCAO basis set for Cl:
    Name: dzp
    File: /groups/kemi/thorkong/miniconda3/envs/gpaw22/share/gpaw/Cl.dzp.basis.gz
    Number of radial functions: 5
    Number of spherical harmonics: 13
      l=0, rc=5.1719 Bohr: 3s-sz confined orbital
      l=1, rc=6.2656 Bohr: 3p-sz confined orbital
      l=0, rc=2.8281 Bohr: 3s-dz split-valence wave
      l=1, rc=3.5156 Bohr: 3p-dz split-valence wave
      l=2, rc=6.2656 Bohr: d-type Gaussian polarization

Reference energy: -4422498.971913

Spin-paired calculation

Convergence criteria:
 Maximum [total energy] change in last 3 cyles: 0.0005 eV / electron
 Maximum integral of absolute [dens]ity change: 0.0001 electrons / valence electron
 Maximum integral of absolute [eigenst]ate change: 4e-08 eV^2 / valence electron
 Maximum number of scf [iter]ations: 333
 (Square brackets indicate name in SCF output, whereas a 'c' in
 the SCF output indicates the quantity has converged.)

Symmetries present (total): 1

  ( 1  0  0)
  ( 0  1  0)
  ( 0  0  1)

16 k-points: 4 x 4 x 1 Monkhorst-Pack grid
8 k-points in the irreducible part of the Brillouin zone
       k-points in crystal coordinates                weights
   0:     0.12500000   -0.37500000    0.00000000          2/16
   1:     0.12500000   -0.12500000    0.00000000          2/16
   2:     0.12500000    0.12500000    0.00000000          2/16
   3:     0.12500000    0.37500000    0.00000000          2/16
   4:     0.37500000   -0.37500000    0.00000000          2/16
   5:     0.37500000   -0.12500000    0.00000000          2/16
   6:     0.37500000    0.12500000    0.00000000          2/16
   7:     0.37500000    0.37500000    0.00000000          2/16

Wave functions: Plane wave expansion
  Cutoff energy: 600.000 eV
  Number of coefficients (min, max): 88905, 88994
  Pulay-stress correction: 0.000000 eV/Ang^3 (de/decut=0.000000)
  Using FFTW library
  ScaLapack parameters: grid=5x1, blocksize=64
  Wavefunction extrapolation:
    Improved wavefunction reuse through dual PAW basis

Occupation numbers: Fermi-Dirac: width=0.1000 eV

Eigensolver
   Davidson(niter=2)

Densities:
  Coarse grid: 60*42*196 grid
  Fine grid: 120*84*392 grid
  Total Charge: 0.000000

Density mixing:
  Method: separate
  Backend: pulay
  Linear mixing parameter: 0.05
  Mixing with 5 old densities
  Damping of long wave oscillations: 50

Hamiltonian:
  XC and Coulomb potentials evaluated on a 120*84*392 grid
  Using the BEEF-vdW Exchange-Correlation functional
  External potential:
    NoExternalPotential

XC parameters: BEEF-vdW with 2 nearest neighbor stencil

Total number of cores used: 40
Parallelization over k-points: 8
Domain decomposition: 1 x 1 x 5
                      2 x 2 x 10 (xc only)

Number of atoms: 104
Number of atomic orbitals: 1544
Number of bands in calculation: 672
Number of valence electrons: 1112
Bands to converge: occupied

... initialized

Initializing position-dependent things.

Density initialized from atomic densities
Creating initial wave functions:
  672 bands from LCAO basis set

 |   Cl           Cl            |
 |    |  Cl    Cu     Cl    Cu  |
 |  CuCu   CuCu  CuCu   CuCu    |
 |    |  Cu    Cu     Cu    Cu  |
 |CuCuCuCu CuCuCuCuCuCu CuCu    |
 |    |  Cu    Cu     Cu    Cu  |
 |Cu  CuCu   CuCu  CuCu   Cu    |
 |  Cu|  CuCu  CuCu   CuCu  Cu  |
 |Cu  | Cu     Cu    Cu         |
 |  CuCu CuCuCuCuCuCu CuCuCuCu  |
 |Cu  | Cu     Cu    Cu         |
 |  CuCu   CuCu  CuCu   CuCu    |
 |    |  Cu    Cu     Cu    Cu  |
 |CuCuCuCu CuCuCuCuCuCu CuCu    |
 |    |Cl           Cl          |
 |Cu  | Cu     Cu    Cu         |
 |    |    Cl           Cl      |

Positions:
   0 Cu     2.894078    0.000000   10.052672    ( 0.0000,  0.0000,  0.0000)
   1 Cu     1.585526    1.850500   11.255893    ( 0.0000,  0.0000,  0.0000)
   2 Cu     4.202528    1.850500   11.255893    ( 0.0000,  0.0000,  0.0000)
   3 Cu     0.277075    0.000000   10.052672    ( 0.0000,  0.0000,  0.0000)
   4 Cu     0.277046    0.000000   12.617554    ( 0.0000,  0.0000,  0.0000)
   5 Cu     4.202500    1.850500   13.915219    ( 0.0000,  0.0000,  0.0000)
   6 Cu     1.585498    1.850500   13.915219    ( 0.0000,  0.0000,  0.0000)
   7 Cu     2.894049    0.000000   12.617554    ( 0.0000,  0.0000,  0.0000)
   8 Cu     2.894023    0.000000   15.235840    ( 0.0000,  0.0000,  0.0000)
   9 Cu     1.585481    1.850500   16.539378    ( 0.0000,  0.0000,  0.0000)
  10 Cu     4.202483    1.850500   16.539378    ( 0.0000,  0.0000,  0.0000)
  11 Cu     0.277021    0.000000   15.235840    ( 0.0000,  0.0000,  0.0000)
  12 Cu     0.277012    0.000000   17.854193    ( 0.0000,  0.0000,  0.0000)
  13 Cu     4.202492    1.850500   19.157800    ( 0.0000,  0.0000,  0.0000)
  14 Cu     1.585490    1.850500   19.157800    ( 0.0000,  0.0000,  0.0000)
  15 Cu     2.894014    0.000000   17.854193    ( 0.0000,  0.0000,  0.0000)
  16 Cu     2.894032    0.000000   20.478448    ( 0.0000,  0.0000,  0.0000)
  17 Cu     1.585513    1.850500   21.776066    ( 0.0000,  0.0000,  0.0000)
  18 Cu     4.202515    1.850500   21.776066    ( 0.0000,  0.0000,  0.0000)
  19 Cu     0.277029    0.000000   20.478448    ( 0.0000,  0.0000,  0.0000)
  20 Cu     0.277055    0.000000   23.137791    ( 0.0000,  0.0000,  0.0000)
  21 Cu     4.202529    1.850500   24.340566    ( 0.0000,  0.0000,  0.0000)
  22 Cu     1.585526    1.850500   24.340566    ( 0.0000,  0.0000,  0.0000)
  23 Cu     2.894058    0.000000   23.137791    ( 0.0000,  0.0000,  0.0000)
  24 Cu     2.894078    3.701000   10.052672    ( 0.0000,  0.0000,  0.0000)
  25 Cu     1.585526    5.551500   11.255893    ( 0.0000,  0.0000,  0.0000)
  26 Cu     4.202528    5.551500   11.255893    ( 0.0000,  0.0000,  0.0000)
  27 Cu     0.277075    3.701000   10.052672    ( 0.0000,  0.0000,  0.0000)
  28 Cu     0.277046    3.701000   12.617555    ( 0.0000,  0.0000,  0.0000)
  29 Cu     4.202500    5.551500   13.915219    ( 0.0000,  0.0000,  0.0000)
  30 Cu     1.585498    5.551500   13.915219    ( 0.0000,  0.0000,  0.0000)
  31 Cu     2.894049    3.701000   12.617555    ( 0.0000,  0.0000,  0.0000)
  32 Cu     2.894023    3.701000   15.235840    ( 0.0000,  0.0000,  0.0000)
  33 Cu     1.585481    5.551500   16.539378    ( 0.0000,  0.0000,  0.0000)
  34 Cu     4.202483    5.551500   16.539378    ( 0.0000,  0.0000,  0.0000)
  35 Cu     0.277021    3.701000   15.235840    ( 0.0000,  0.0000,  0.0000)
  36 Cu     0.277012    3.701000   17.854193    ( 0.0000,  0.0000,  0.0000)
  37 Cu     4.202492    5.551500   19.157800    ( 0.0000,  0.0000,  0.0000)
  38 Cu     1.585490    5.551500   19.157800    ( 0.0000,  0.0000,  0.0000)
  39 Cu     2.894014    3.701000   17.854193    ( 0.0000,  0.0000,  0.0000)
  40 Cu     2.894032    3.701000   20.478448    ( 0.0000,  0.0000,  0.0000)
  41 Cu     1.585513    5.551500   21.776066    ( 0.0000,  0.0000,  0.0000)
  42 Cu     4.202515    5.551500   21.776066    ( 0.0000,  0.0000,  0.0000)
  43 Cu     0.277029    3.701000   20.478448    ( 0.0000,  0.0000,  0.0000)
  44 Cu     0.277055    3.701000   23.137791    ( 0.0000,  0.0000,  0.0000)
  45 Cu     4.202529    5.551500   24.340566    ( 0.0000,  0.0000,  0.0000)
  46 Cu     1.585526    5.551500   24.340566    ( 0.0000,  0.0000,  0.0000)
  47 Cu     2.894058    3.701000   23.137791    ( 0.0000,  0.0000,  0.0000)
  48 Cu     8.128082    0.000000   10.052672    ( 0.0000,  0.0000,  0.0000)
  49 Cu     6.819531    1.850500   11.255893    ( 0.0000,  0.0000,  0.0000)
  50 Cu     9.436533    1.850500   11.255893    ( 0.0000,  0.0000,  0.0000)
  51 Cu     5.511080    0.000000   10.052672    ( 0.0000,  0.0000,  0.0000)
  52 Cu     5.511051    0.000000   12.617555    ( 0.0000,  0.0000,  0.0000)
  53 Cu     9.436505    1.850500   13.915219    ( 0.0000,  0.0000,  0.0000)
  54 Cu     6.819502    1.850500   13.915219    ( 0.0000,  0.0000,  0.0000)
  55 Cu     8.128053    0.000000   12.617555    ( 0.0000,  0.0000,  0.0000)
  56 Cu     8.128028    0.000000   15.235840    ( 0.0000,  0.0000,  0.0000)
  57 Cu     6.819486    1.850500   16.539378    ( 0.0000,  0.0000,  0.0000)
  58 Cu     9.436488    1.850500   16.539378    ( 0.0000,  0.0000,  0.0000)
  59 Cu     5.511026    0.000000   15.235840    ( 0.0000,  0.0000,  0.0000)
[...]
  89 Cu     6.819518    5.551500   21.776066    ( 0.0000,  0.0000,  0.0000)
  90 Cu     9.436520    5.551500   21.776066    ( 0.0000,  0.0000,  0.0000)
  91 Cu     5.511034    3.701000   20.478448    ( 0.0000,  0.0000,  0.0000)
  92 Cu     5.511060    3.701000   23.137791    ( 0.0000,  0.0000,  0.0000)
  93 Cu     9.436533    5.551500   24.340566    ( 0.0000,  0.0000,  0.0000)
  94 Cu     6.819531    5.551500   24.340565    ( 0.0000,  0.0000,  0.0000)
  95 Cu     8.128062    3.701000   23.137791    ( 0.0000,  0.0000,  0.0000)
  96 Cl     2.894027    1.850500   26.340566    ( 0.0000,  0.0000,  0.0000)
[...]
                         energy  eigst   dens
iter:   1 01:41:11 -7613.100293  -0.81
iter:   2 01:42:43 -7891.273414  -0.27  -1.61
iter:   3 01:44:16 -7599.174222  -0.75  -1.05
iter:   4 01:45:46 -7578.169485  -1.69  -1.66
iter:   5 01:47:17 -7573.615192  -2.42  -2.05
iter:   6 01:48:50 -7571.111196  -3.21  -2.11
iter:   7 01:50:21 -7568.476345  -2.35  -2.17
iter:   8 01:51:52 -7568.349764  -2.86  -2.31
iter:   9 01:53:23 -7568.495564c -2.49  -2.39
iter:  10 01:54:53 -7567.867549  -2.72  -2.52
iter:  11 01:56:24 -7567.663782  -3.43  -2.59
iter:  12 01:57:55 -7567.536629c -4.26  -2.77
iter:  13 01:59:25 -7567.515624c -3.99  -2.96
iter:  14 02:00:56 -7567.500491c -4.90  -3.13
iter:  15 02:02:27 -7567.495211c -4.96  -3.33
iter:  16 02:03:59 -7567.494868c -4.94  -3.42
iter:  17 02:05:33 -7567.495313c -5.37  -3.56
iter:  18 02:07:07 -7567.496043c -5.09  -3.56
iter:  19 02:08:42 -7567.490449c -5.60  -3.45
iter:  20 02:10:14 -7567.490653c -5.59  -3.90
iter:  21 02:11:46 -7567.490449c -6.74  -3.94
iter:  22 02:13:16 -7567.490361c -6.32  -4.08c
iter:  23 02:14:48 -7567.490332c -6.01  -4.15c
iter:  24 02:16:23 -7567.490345c -6.91  -4.29c
iter:  25 02:17:54 -7567.490254c -6.73  -4.22c
iter:  26 02:19:24 -7567.490187c -7.17  -4.27c
iter:  27 02:20:55 -7567.490241c -6.77  -4.49c
iter:  28 02:22:26 -7567.490221c -7.23  -4.47c
iter:  29 02:23:58 -7567.490215c -7.71c -4.73c

[...]

Density initialized from wave functions
 |   Cl           Cl            |
 |    |  Cu    Cu     Cu    Cu  |
 |    |  Cl  Cu       Cl  Cu    |
 |  CuCu   CuCu  CuCu   CuCu    |
 |    |CuCu    Cu   CuCu    Cu  |
 |Cu  Cu     CuCu  Cu     Cu    |
 |  Cu|CuCuCu  CuCu CuCuCu  Cu  |
 |    CuCu   Cu    CuCu   Cu    |
 |  Cu|CuCuCu  CuCu CuCuCu  Cu  |
 |    | Cu           Cu         |
 |  CuCu CuCuCuCuCuCu CuCuCuCu  |
 |    |Cu           Cu          |
 |    | Cu           Cu         |
 |  CuCu CuCuCuCuCuCu CuCuCuCu  |
 |    |Cu    Cu     Cu    Cu    |
 |  CuCuCu CuCu  CuCuCu CuCu    |
 |    |Cl           Cl          |
 |    |    Cl           Cl      |

[...]

Density initialized from wave functions
 |   Cl           Cl            |
 |    |  Cu    Cu     Cu    Cu  |
 |    |  Cl  Cu       Cl  Cu    |
 |  CuCu   CuCu  CuCu   CuCu    |
 |    |CuCu    Cu   CuCu    Cu  |
 |Cu  Cu     CuCu  Cu     Cu    |
 |  Cu|CuCuCu  CuCu CuCuCu  Cu  |
 |    CuCu   Cu    CuCu   Cu    |
 |  Cu|CuCuCu  CuCu CuCuCu  Cu  |
 |    | Cu           Cu         |
 |  CuCu CuCuCuCuCuCu CuCuCuCu  |
 |    |Cu           Cu          |
 |    | Cu           Cu         |
 |  CuCu CuCuCuCuCuCu CuCuCuCu  |
 |    |Cu    Cu     Cu    Cu    |
 |  CuCuCu CuCu  CuCuCu CuCu    |
 |    |Cl           Cl          |
 |    |    Cl           Cl      |

[...]

Density initialized from wave functions
 |   Cl           Cl            |
 |    |  Cu    Cu     Cu    Cu  |
 |    |  Cl  Cu       Cl  Cu    |
 |  CuCu   CuCu  CuCu   CuCu    |
 |    |CuCu    Cu   CuCu    Cu  |
 |Cu  Cu     CuCu  Cu     Cu    |
 |  Cu|CuCuCu  CuCu CuCuCu  Cu  |
 |    CuCu   Cu    CuCu   Cu    |
 |  Cu|CuCuCu  CuCu CuCuCu  Cu  |
 |    | Cu           Cu         |
 |  CuCu CuCuCuCuCuCu CuCuCuCu  |
 |    |Cu           Cu          |
 |    | Cu           Cu         |
 |  CuCu CuCuCuCuCuCu CuCuCuCu  |
 |    |Cu           Cu          |
 |  CuCuCu CuCu  CuCuCu CuCu    |
 |    |Cl           Cl          |
 |    | Cu           Cu         |
 |    |    Cl           Cl      |

[...]

     iter     time        total  log10-change:
                         energy  eigst   dens
iter:   1 04:17:07 -7569.898683  -2.95
iter:   2 04:18:42 -7579.050000  -2.26  -2.24
iter:   3 04:20:10 -7568.218988  -2.65  -1.87
iter:   4 04:21:38 -7568.149942  -4.33  -2.85
iter:   5 04:23:09 -7568.117323c -5.12  -3.08
iter:   6 04:24:51 -7568.114190c -5.42  -3.46
iter:   7 04:26:34 -7568.113154c -5.67  -3.73
iter:   8 04:28:17 -7568.112996c -6.34  -3.85
iter:   9 04:30:01 -7568.112609c -6.78  -3.89
iter:  10 04:31:46 -7568.112644c -7.12  -4.11c
iter:  11 04:33:30 -7568.112660c -6.35  -4.11c
iter:  12 04:35:14 -7568.112544c -6.81  -4.16c
iter:  13 04:36:59 -7568.112581c -7.73c -4.62c

[...]

Density initialized from wave functions
 |   Cl           Cl            |
 |    |  Cu    Cu     Cu    Cu  |
 |    |  Cl  Cu       Cl  Cu    |
 |  CuCu   CuCu  CuCu   CuCu    |
 |    |CuCu    Cu   CuCu    Cu  |
 |Cu  Cu     CuCu  Cu     Cu    |
 |  Cu|CuCuCu  CuCu CuCuCu  Cu  |
 |    CuCu   Cu    CuCu   Cu    |
 |  Cu|CuCuCu  CuCu CuCuCu  Cu  |
 |    | Cu           Cu         |
 |  CuCu CuCuCuCuCuCu CuCuCuCu  |
 |    |Cu           Cu          |
 |    | Cu           Cu         |
 |  CuCu CuCuCuCuCuCu CuCuCuCu  |
 |    |Cu           Cu          |
 |  CuCuCu CuCu  CuCuCu CuCu    |
 |    |Cl           Cl          |
 |    | Cu           Cu         |
 |    |    Cl           Cl      |

[...]

     iter     time        total  log10-change:
                         energy  eigst   dens
iter:   1 04:39:46 -7569.018096  -3.32
iter:   2 04:41:30 -7573.533574  -2.56  -2.40
iter:   3 04:43:13 -7568.124776  -3.03  -2.02
iter:   4 04:44:57 -7568.120805  -4.57  -3.33
iter:   5 04:46:40 -7568.118457c -5.63  -3.51
iter:   6 04:48:24 -7568.117827c -6.17  -3.86
iter:   7 04:50:07 -7568.117621c -6.13  -4.03c
iter:   8 04:51:51 -7568.117947c -6.53  -4.21c
iter:   9 04:53:34 -7568.117547c -6.70  -3.97
iter:  10 04:55:17 -7568.117538c -6.91  -4.32c
iter:  11 04:57:00 -7568.117585c -6.76  -4.55c
iter:  12 04:58:44 -7568.117567c -7.78c -4.48c

[...]

System changes: positions

Initializing position-dependent things.

Density initialized from wave functions
 |   Cl           Cl            |
 |    |  Cu    Cu     Cu    Cu  |
 |    |  Cl  Cu       Cl  Cu    |
 |  CuCu   CuCu  CuCu   CuCu    |
 |    |CuCu    Cu   CuCu    Cu  |
 |Cu  Cu     CuCu  Cu     Cu    |
 |  Cu|CuCuCu  CuCu CuCuCu  Cu  |
 |    CuCu   Cu    CuCu   Cu    |
 |  Cu|CuCuCu  CuCu CuCuCu  Cu  |
 |    | Cu           Cu         |
 |  CuCu CuCuCuCuCuCu CuCuCuCu  |
 |    |Cu           Cu          |
 |    | Cu           Cu         |
 |  CuCu CuCuCuCuCuCu CuCuCuCu  |
 |    |Cu           Cu          |
 |  CuCuCu CuCu  CuCuCu CuCu    |
 |    |CCu          CCu         |
 |    |    Cl           Cl      |

Positions:
   0 Cu     2.847781    0.002032   10.015699    ( 0.0000,  0.0000,  0.0000)
   1 Cu     1.559368    1.810271   11.339022    ( 0.0000,  0.0000,  0.0000)
   2 Cu     4.175401    1.893951   11.336814    ( 0.0000,  0.0000,  0.0000)
   3 Cu     0.253971   -0.001008   10.012543    ( 0.0000,  0.0000,  0.0000)
   4 Cu     0.251612   -0.001133   12.603210    ( 0.0000,  0.0000,  0.0000)
   5 Cu     4.200890    1.847236   13.948814    ( 0.0000,  0.0000,  0.0000)
   6 Cu     1.581632    1.853491   13.950790    ( 0.0000,  0.0000,  0.0000)
   7 Cu     2.888022    0.001602   12.602391    ( 0.0000,  0.0000,  0.0000)
   8 Cu     2.888645    0.001434   15.233941    ( 0.0000,  0.0000,  0.0000)
   9 Cu     1.583917    1.856572   16.565496    ( 0.0000,  0.0000,  0.0000)
  10 Cu     4.205322    1.844157   16.564515    ( 0.0000,  0.0000,  0.0000)
  11 Cu     0.284591   -0.002220   15.232829    ( 0.0000,  0.0000,  0.0000)
  12 Cu     0.280227   -0.006077   17.852793    ( 0.0000,  0.0000,  0.0000)
  13 Cu     4.208197    1.848636   19.184900    ( 0.0000,  0.0000,  0.0000)
  14 Cu     1.580369    1.852394   19.185079    ( 0.0000,  0.0000,  0.0000)
  15 Cu     2.892033    0.005866   17.855817    ( 0.0000,  0.0000,  0.0000)
  16 Cu     2.892914    0.002456   20.468023    ( 0.0000,  0.0000,  0.0000)
  17 Cu     1.593953    1.851914   21.811753    ( 0.0000,  0.0000,  0.0000)
  18 Cu     4.192279    1.849190   21.811659    ( 0.0000,  0.0000,  0.0000)
  19 Cu     0.278911   -0.002968   20.465698    ( 0.0000,  0.0000,  0.0000)
  20 Cu     0.274736    0.038005   23.075269    ( 0.0000,  0.0000,  0.0000)
  21 Cu     4.215248    1.849044   24.394662    ( 0.0000,  0.0000,  0.0000)
  22 Cu     1.570393    1.852558   24.394885    ( 0.0000,  0.0000,  0.0000)
  23 Cu     2.891999   -0.038665   23.077139    ( 0.0000,  0.0000,  0.0000)
  24 Cu     2.868062    3.700051   10.008267    ( 0.0000,  0.0000,  0.0000)
  25 Cu     1.558927    5.594785   11.338794    ( 0.0000,  0.0000,  0.0000)
  26 Cu     4.175852    5.511166   11.337230    ( 0.0000,  0.0000,  0.0000)
  27 Cu     0.227234    3.702956   10.019082    ( 0.0000,  0.0000,  0.0000)
  28 Cu     0.270664    3.702573   12.603870    ( 0.0000,  0.0000,  0.0000)
  29 Cu     4.198428    5.553942   13.949151    ( 0.0000,  0.0000,  0.0000)
  30 Cu     1.584085    5.547688   13.950577    ( 0.0000,  0.0000,  0.0000)
  31 Cu     2.867923    3.699891   12.600142    ( 0.0000,  0.0000,  0.0000)
  32 Cu     2.901162    3.698814   15.230965    ( 0.0000,  0.0000,  0.0000)
  33 Cu     1.588758    5.545044   16.565776    ( 0.0000,  0.0000,  0.0000)
  34 Cu     4.200495    5.557455   16.564381    ( 0.0000,  0.0000,  0.0000)
  35 Cu     0.271439    3.702450   15.235361    ( 0.0000,  0.0000,  0.0000)
  36 Cu     0.275212    3.706967   17.856082    ( 0.0000,  0.0000,  0.0000)
  37 Cu     4.196696    5.553326   19.184110    ( 0.0000,  0.0000,  0.0000)
  38 Cu     1.591923    5.549591   19.185882    ( 0.0000,  0.0000,  0.0000)
  39 Cu     2.896848    3.695021   17.852381    ( 0.0000,  0.0000,  0.0000)
  40 Cu     2.895451    3.698543   20.466836    ( 0.0000,  0.0000,  0.0000)
  41 Cu     1.575508    5.550213   21.813020    ( 0.0000,  0.0000,  0.0000)
  42 Cu     4.210632    5.552915   21.811330    ( 0.0000,  0.0000,  0.0000)
  43 Cu     0.276300    3.703986   20.466859    ( 0.0000,  0.0000,  0.0000)
  44 Cu     0.275027    3.663248   23.075257    ( 0.0000,  0.0000,  0.0000)
  45 Cu     4.183694    5.553504   24.396352    ( 0.0000,  0.0000,  0.0000)
  46 Cu     1.595405    5.549933   24.397616    ( 0.0000,  0.0000,  0.0000)
  47 Cu     2.891698    3.739934   23.077128    ( 0.0000,  0.0000,  0.0000)
  48 Cu     8.082314    0.002139   10.017548    ( 0.0000,  0.0000,  0.0000)
  49 Cu     6.793057    1.810528   11.339294    ( 0.0000,  0.0000,  0.0000)
  50 Cu     9.409637    1.892988   11.340754    ( 0.0000,  0.0000,  0.0000)
  51 Cu     5.487996   -0.001038   10.011144    ( 0.0000,  0.0000,  0.0000)
  52 Cu     5.484892   -0.001143   12.600810    ( 0.0000,  0.0000,  0.0000)
  53 Cu     9.435081    1.846478   13.951878    ( 0.0000,  0.0000,  0.0000)
  54 Cu     6.815247    1.853263   13.950710    ( 0.0000,  0.0000,  0.0000)
  55 Cu     8.121557    0.001580   12.603977    ( 0.0000,  0.0000,  0.0000)
  56 Cu     8.121926    0.001455   15.235007    ( 0.0000,  0.0000,  0.0000)
  57 Cu     6.817222    1.856534   16.564876    ( 0.0000,  0.0000,  0.0000)
  58 Cu     9.439629    1.844006   16.565787    ( 0.0000,  0.0000,  0.0000)
  59 Cu     5.517536   -0.002202   15.230855    ( 0.0000,  0.0000,  0.0000)
[...]
  89 Cu     6.810448    5.550201   21.809866    ( 0.0000,  0.0000,  0.0000)
  90 Cu     9.443739    5.552944   21.808652    ( 0.0000,  0.0000,  0.0000)
  91 Cu     5.509480    3.703957   20.466500    ( 0.0000,  0.0000,  0.0000)
  92 Cu     5.508963    3.663319   23.075059    ( 0.0000,  0.0000,  0.0000)
  93 Cu     9.417748    5.553510   24.390975    ( 0.0000,  0.0000,  0.0000)
  94 Cu     6.828739    5.550007   24.392518    ( 0.0000,  0.0000,  0.0000)
  95 Cu     8.125723    3.738147   23.073147    ( 0.0000,  0.0000,  0.0000)
  96 Cl     2.893367    1.850856   26.244994    ( 0.0000,  0.0000,  0.0000)
  97 Cl     8.127315    1.850924   26.243788    ( 0.0000,  0.0000,  0.0000)
  98 Cl     5.507803    5.551959   26.244330    ( 0.0000,  0.0000,  0.0000)
  99 Cl     0.268725    5.551860   26.245018    ( 0.0000,  0.0000,  0.0000)
 100 Cl     4.160322    0.040190    8.159312    ( 0.0000,  0.0000,  0.0000)
 101 Cl     9.394508    0.039999    8.161000    ( 0.0000,  0.0000,  0.0000)
 102 Cl     6.775869    3.741095    8.160558    ( 0.0000,  0.0000,  0.0000)
 103 Cl     1.534359    3.741089    8.162272    ( 0.0000,  0.0000,  0.0000)

Unit cell:
           periodic     x           y           z      points  spacing
  1. axis:    yes   10.468009    0.000000    0.000000    60     0.1745
  2. axis:    yes    0.000000    7.402000    0.000000    42     0.1762
  3. axis:    yes    0.000000    0.000000   34.393512   196     0.1755

  Lengths:  10.468009   7.402000  34.393512
  Angles:   90.000000  90.000000  90.000000

Effective grid spacing dv^(1/3) = 0.1754

     iter     time        total  log10-change:
                         energy  eigst   dens
iter:   1 05:01:30 -7570.039491  -2.96
iter:   2 05:03:13 -7580.572959  -2.22  -2.23
iter:   3 05:04:57 -7568.193117  -2.63  -1.84
iter:   4 05:06:39 -7568.154639  -4.10  -2.94
iter:   5 05:08:23 -7568.139281c -5.43  -3.08
iter:   6 05:10:05 -7568.121599c -5.11  -3.22
iter:   7 05:11:49 -7568.120510c -5.73  -3.74
iter:   8 05:13:32 -7568.121038c -6.05  -3.86
iter:   9 05:15:16 -7568.120017c -6.42  -3.76
iter:  10 05:16:59 -7568.120480c -6.09  -4.11c
iter:  11 05:18:42 -7568.120068c -6.93  -3.93
iter:  12 05:20:25 -7568.119956c -7.07  -4.17c
iter:  13 05:22:08 -7568.119959c -7.80c -4.55c

Converged after 13 iterations.

Dipole moment: (-110.649641, -6.847079, 0.004899) |e|*Ang

Energy contributions relative to reference atoms: (reference = -4422498.971913)

Kinetic:       +725.172863
Potential:     -805.357334
External:        +0.000000
XC:            -7486.338401
Entropy (-ST):   -0.926357
Local:           -1.133908
Free energy:   -7568.583137
Extrapolated:  -7568.119959

Showing only first 2 kpts
 Kpt  Band  Eigenvalues  Occupancy
  0   554      0.51764    0.54732
  0   555      0.57871    0.33968
  0   556      0.62578    0.22660
  0   557      0.73924    0.07893

  1   554      0.16540    1.85465
  1   555      0.28691    1.58209
  1   556      0.37827    1.20583
  1   557      0.42763    0.96204

Fermi level: 0.42003

No gap

Forces in eV/Ang:
  0 Cu   -0.00174    0.00108    0.00414
  1 Cu    0.00001    0.01611   -0.00464
  2 Cu    0.00118   -0.01446   -0.00458
  3 Cu    0.00768    0.00116    0.00578
  4 Cu    0.00304    0.00088   -0.01134
  5 Cu   -0.00866   -0.00023   -0.00699
  6 Cu   -0.00833    0.00045   -0.00909
  7 Cu   -0.00145    0.00031   -0.00055
  8 Cu   -0.00224   -0.00062   -0.00799
  9 Cu    0.00277   -0.00456   -0.00576
 10 Cu   -0.00207    0.00453   -0.00514
 11 Cu   -0.00707    0.00144   -0.00345
 12 Cu   -0.00113    0.00344    0.00571
 13 Cu    0.00196    0.00049    0.00205
 14 Cu   -0.00179   -0.00099    0.00326
 15 Cu    0.00134   -0.00358   -0.00701
 16 Cu   -0.00005    0.00221    0.00272
 17 Cu   -0.00323    0.00030    0.00597
 18 Cu    0.00206    0.00014    0.00565
 19 Cu   -0.00235   -0.00131    0.00766
 20 Cu    0.00237   -0.00574    0.00393
 21 Cu    0.00307   -0.00026    0.00379
 22 Cu   -0.00407   -0.00033    0.00433
 23 Cu    0.00008    0.00780    0.00207
 24 Cu    0.01506    0.00101    0.01784
 25 Cu    0.00058   -0.01570   -0.00506
 26 Cu    0.00051    0.01481   -0.00456
 27 Cu   -0.00587    0.00103    0.01273
 28 Cu   -0.00123    0.00036    0.00185
 29 Cu   -0.00815    0.00121   -0.00711
 30 Cu   -0.00884    0.00053   -0.00915
 31 Cu    0.00437    0.00083   -0.00906
 32 Cu   -0.00649    0.00140   -0.00110
 33 Cu   -0.00237    0.00467   -0.00683
 34 Cu    0.00308   -0.00442   -0.00517
 35 Cu   -0.00126   -0.00063   -0.00949
 36 Cu    0.00108   -0.00383   -0.00739
 37 Cu   -0.00072   -0.00065    0.00445
 38 Cu    0.00080    0.00080    0.00047
 39 Cu   -0.00041    0.00319    0.00643
 40 Cu   -0.00098   -0.00212    0.00597
 41 Cu    0.00157    0.00001    0.00353
 42 Cu   -0.00178    0.00023    0.00682
 43 Cu   -0.00127    0.00138    0.00465
 44 Cu    0.00219    0.00586    0.00462
 45 Cu    0.00056   -0.00027   -0.00006
 46 Cu    0.00042   -0.00013    0.00226
 47 Cu    0.00025   -0.00771    0.00117
 48 Cu   -0.00272    0.00095    0.00357
 49 Cu    0.00062    0.01493   -0.00544
 50 Cu    0.00050   -0.01401   -0.00716
 51 Cu    0.00776    0.00117    0.00432
 52 Cu    0.00382    0.00092   -0.00814
 53 Cu   -0.00875    0.00137   -0.01075
 54 Cu   -0.00810    0.00100   -0.00935
 55 Cu   -0.00160    0.00036   -0.00037
 56 Cu   -0.00063   -0.00064   -0.00909
 57 Cu    0.00337   -0.00455   -0.00602
 58 Cu   -0.00217    0.00458   -0.00696
 59 Cu   -0.00530    0.00139   -0.00162
[...]
 89 Cu   -0.00122    0.00010    0.00714
 90 Cu    0.00052    0.00013    0.00893
 91 Cu    0.00052    0.00149    0.00465
 92 Cu    0.00157    0.00563    0.00435
 93 Cu    0.00318   -0.00029    0.01318
 94 Cu    0.00670   -0.00020    0.00492
 95 Cu   -0.00057   -0.00470    0.00555
 96 Cl   -0.00130    0.00015   -0.00771
 97 Cl   -0.00351    0.00015   -0.00861
 98 Cl    0.00323    0.00014   -0.00648
 99 Cl   -0.00578    0.00016   -0.01956
100 Cl    0.01272   -0.00394    0.01128
101 Cl    0.01400   -0.00395    0.01101
102 Cl    0.01596   -0.00371    0.00137
103 Cl    0.01671   -0.00332   -0.01876