User:   thorkong@node061.cluster
Date:   Mon Oct 17 14:44:19 2022
Arch:   x86_64
Pid:    46849
Python: 3.10.5
gpaw:   /groups/kemi/thorkong/miniconda3/envs/gpaw22/lib/python3.10/site-packages/gpaw
_gpaw:  /groups/kemi/thorkong/miniconda3/envs/gpaw22/lib/python3.10/site-packages/
        _gpaw.cpython-310-x86_64-linux-gnu.so
ase:    /groups/kemi/thorkong/miniconda3/envs/gpaw22/lib/python3.10/site-packages/ase (version 3.22.1)
numpy:  /groups/kemi/thorkong/miniconda3/envs/gpaw22/lib/python3.10/site-packages/numpy (version 1.23.0)
scipy:  /groups/kemi/thorkong/miniconda3/envs/gpaw22/lib/python3.10/site-packages/scipy (version 1.8.1)
units:  Angstrom and eV
cores: 32
OpenMP: True
OMP_NUM_THREADS: 1

Input parameters:
  basis: dzp
  kpts: [4 4 1]
  mode: {ecut: 600.0,
         name: pw}
  xc: BEEF-vdW

System changes: positions, numbers, cell, pbc, initial_charges, initial_magmoms

Initialize ...

Cu-setup:
  name: Copper
  id: f1c4d45d90492f1bbfdcb091e8418fdf
  Z: 29.0
  valence: 11
  core: 18
  charge: 0.0
  file: /groups/kemi/thorkong/miniconda3/envs/gpaw22/share/gpaw/Cu.PBE.gz
  compensation charges: gauss, rc=0.33, lmax=2
  cutoffs: 2.06(filt), 2.43(core),
  valence states:
                energy  radius
    4s(1.00)    -4.609   1.164
    4p(0.00)    -0.698   1.164
    3d(10.00)    -5.039   1.058
    *s          22.603   1.164
    *p          26.513   1.164
    *d          22.172   1.058

  LCAO basis set for Cu:
    Name: dzp
    File: /groups/kemi/thorkong/miniconda3/envs/gpaw22/share/gpaw/Cu.dzp.basis.gz
    Number of radial functions: 5
    Number of spherical harmonics: 15
      l=0, rc=8.9688 Bohr: 4s-sz confined orbital
      l=2, rc=5.1719 Bohr: 3d-sz confined orbital
      l=0, rc=5.3281 Bohr: 4s-dz split-valence wave
      l=2, rc=3.1406 Bohr: 3d-dz split-valence wave
      l=1, rc=8.9688 Bohr: p-type Gaussian polarization

Cl-setup:
  name: Chlorine
  id: 726897f06f34e53cf8e33b5885a02604
  Z: 17.0
  valence: 7
  core: 10
  charge: 0.0
  file: /groups/kemi/thorkong/miniconda3/envs/gpaw22/share/gpaw/Cl.PBE.gz
  compensation charges: gauss, rc=0.25, lmax=2
  cutoffs: 1.40(filt), 1.49(core),
  valence states:
                energy  radius
    3s(2.00)   -20.689   0.794
    3p(5.00)    -8.594   0.794
    *s           6.523   0.794
    *p          18.617   0.794
    *d           0.000   0.794

  LCAO basis set for Cl:
    Name: dzp
    File: /groups/kemi/thorkong/miniconda3/envs/gpaw22/share/gpaw/Cl.dzp.basis.gz
    Number of radial functions: 5
    Number of spherical harmonics: 13
      l=0, rc=5.1719 Bohr: 3s-sz confined orbital
      l=1, rc=6.2656 Bohr: 3p-sz confined orbital
      l=0, rc=2.8281 Bohr: 3s-dz split-valence wave
      l=1, rc=3.5156 Bohr: 3p-dz split-valence wave
      l=2, rc=6.2656 Bohr: d-type Gaussian polarization

Reference energy: -2556707.893378

Spin-paired calculation

Convergence criteria:
 Maximum [total energy] change in last 3 cyles: 0.0005 eV / electron
 Maximum integral of absolute [dens]ity change: 0.0001 electrons / valence electron
 Maximum integral of absolute [eigenst]ate change: 4e-08 eV^2 / valence electron
 Maximum number of scf [iter]ations: 333
 (Square brackets indicate name in SCF output, whereas a 'c' in
 the SCF output indicates the quantity has converged.)

Symmetries present (total): 1

  ( 1  0  0)
  ( 0  1  0)
  ( 0  0  1)

16 k-points: 4 x 4 x 1 Monkhorst-Pack grid
8 k-points in the irreducible part of the Brillouin zone
       k-points in crystal coordinates                weights
   0:     0.12500000   -0.37500000    0.00000000          2/16
   1:     0.12500000   -0.12500000    0.00000000          2/16
   2:     0.12500000    0.12500000    0.00000000          2/16
   3:     0.12500000    0.37500000    0.00000000          2/16
   4:     0.37500000   -0.37500000    0.00000000          2/16
   5:     0.37500000   -0.12500000    0.00000000          2/16
   6:     0.37500000    0.12500000    0.00000000          2/16
   7:     0.37500000    0.37500000    0.00000000          2/16

Wave functions: Plane wave expansion
  Cutoff energy: 600.000 eV
  Number of coefficients (min, max): 63070, 63184
  Pulay-stress correction: 0.000000 eV/Ang^3 (de/decut=0.000000)
  Using FFTW library
  ScaLapack parameters: grid=2x2, blocksize=64
  Wavefunction extrapolation:
    Improved wavefunction reuse through dual PAW basis

Occupation numbers: Fermi-Dirac: width=0.1000 eV

Eigensolver
   Davidson(niter=2)

Densities:
  Coarse grid: 45*48*175 grid
  Fine grid: 90*96*350 grid
  Total Charge: 0.000000

Density mixing:
  Method: separate
  Backend: pulay
  Linear mixing parameter: 0.05
  Mixing with 5 old densities
  Damping of long wave oscillations: 50

Hamiltonian:
  XC and Coulomb potentials evaluated on a 90*96*350 grid
  Using the BEEF-vdW Exchange-Correlation functional
  External potential:
    NoExternalPotential

XC parameters: BEEF-vdW with 2 nearest neighbor stencil

Total number of cores used: 32
Parallelization over k-points: 8
Domain decomposition: 1 x 1 x 4
                      2 x 2 x 8 (xc only)

Number of atoms: 64
Number of atomic orbitals: 940
Number of bands in calculation: 403
Number of valence electrons: 664
Bands to converge: occupied

... initialized

Initializing position-dependent things.

Density initialized from atomic densities
Creating initial wave functions:
  403 bands from LCAO basis set

            Cl          Cl

                Cl
        Cl Cu    Cu  Cl Cu

         Cu    Cu    CCu    Cu
       Cu    Cu    Cu     Cu
              Cu    Cu
           Cu    CCu    Cu
         Cu    Cu    CCu    Cu

       Cu    CCu   CCu    Cu
           Cu    CCu   CCu

         Cu    Cu    CCu    Cu
             Cu     Cu    Cu
       Cu     Cu    Cu
           Cu Cl  Cu    Cu Cl

                   Cl
          Cl           Cl

Positions:
   0 Cu     1.851874    1.842086   10.044767    ( 0.0000,  0.0000,  0.0000)
   1 Cu     0.572048    0.518337   11.854739    ( 0.0000,  0.0000,  0.0000)
   2 Cu     3.208369    0.549454   11.826759    ( 0.0000,  0.0000,  0.0000)
   3 Cu     1.885044    1.836608   13.699605    ( 0.0000,  0.0000,  0.0000)
   4 Cu     0.579320    0.526826   15.560947    ( 0.0000,  0.0000,  0.0000)
   5 Cu     3.185437    0.522508   15.555968    ( 0.0000,  0.0000,  0.0000)
   6 Cu     1.901068    1.854575   17.424612    ( 0.0000,  0.0000,  0.0000)
   7 Cu     0.575906    0.561899   19.206760    ( 0.0000,  0.0000,  0.0000)
   8 Cu     3.188310    0.488633   19.210481    ( 0.0000,  0.0000,  0.0000)
   9 Cu     0.574574    3.144633   11.846476    ( 0.0000,  0.0000,  0.0000)
  10 Cu     0.575916    3.143785   15.552326    ( 0.0000,  0.0000,  0.0000)
  11 Cu     0.546349    3.145891   19.206137    ( 0.0000,  0.0000,  0.0000)
  12 Cu     7.147069    1.821677   10.043621    ( 0.0000,  0.0000,  0.0000)
  13 Cu     5.794000    0.540777   11.820405    ( 0.0000,  0.0000,  0.0000)
  14 Cu     7.114080    1.831917   13.694773    ( 0.0000,  0.0000,  0.0000)
  15 Cu     5.808982    0.523918   15.556714    ( 0.0000,  0.0000,  0.0000)
  16 Cu     7.113100    1.827061   17.396972    ( 0.0000,  0.0000,  0.0000)
  17 Cu     5.807880    0.526790   19.217827    ( 0.0000,  0.0000,  0.0000)
  18 Cu     4.494064    1.763231    9.932089    ( 0.0000,  0.0000,  0.0000)
  19 Cu     4.496146    4.525263    9.931071    ( 0.0000,  0.0000,  0.0000)
  20 Cu     3.207669    3.147945   11.830838    ( 0.0000,  0.0000,  0.0000)
  21 Cu     5.791432    3.139321   11.831411    ( 0.0000,  0.0000,  0.0000)
  22 Cu     4.501104    1.833097   13.705422    ( 0.0000,  0.0000,  0.0000)
  23 Cu     4.500286    4.451342   13.700374    ( 0.0000,  0.0000,  0.0000)
  24 Cu     3.191019    3.143173   15.550169    ( 0.0000,  0.0000,  0.0000)
  25 Cu     5.806714    3.142761   15.552225    ( 0.0000,  0.0000,  0.0000)
  26 Cu     4.483820    1.848780   17.430757    ( 0.0000,  0.0000,  0.0000)
  27 Cu     4.483576    4.446716   17.420218    ( 0.0000,  0.0000,  0.0000)
  28 Cu     3.195113    3.070202   19.320757    ( 0.0000,  0.0000,  0.0000)
  29 Cu     5.840799    3.127025   19.209886    ( 0.0000,  0.0000,  0.0000)
  30 Cu     1.850636    4.467419   10.041562    ( 0.0000,  0.0000,  0.0000)
  31 Cu     1.883456    7.067453   10.032493    ( 0.0000,  0.0000,  0.0000)
  32 Cu     0.578168    5.767618   11.853682    ( 0.0000,  0.0000,  0.0000)
  33 Cu     3.207330    5.746015   11.820678    ( 0.0000,  0.0000,  0.0000)
  34 Cu     1.884398    4.451712   13.698510    ( 0.0000,  0.0000,  0.0000)
  35 Cu     1.882140    7.070634   13.694193    ( 0.0000,  0.0000,  0.0000)
  36 Cu     0.577138    5.762455   15.555937    ( 0.0000,  0.0000,  0.0000)
  37 Cu     3.190200    5.761333   15.545038    ( 0.0000,  0.0000,  0.0000)
  38 Cu     1.899950    4.455283   17.419419    ( 0.0000,  0.0000,  0.0000)
  39 Cu     1.897387    7.053708   17.430112    ( 0.0000,  0.0000,  0.0000)
  40 Cu     0.544416    5.772752   19.207193    ( 0.0000,  0.0000,  0.0000)
  41 Cu     3.197353    5.832220   19.317966    ( 0.0000,  0.0000,  0.0000)
  42 Cu     7.144990    4.448863   10.045121    ( 0.0000,  0.0000,  0.0000)
  43 Cu     7.115261    7.033008   10.044024    ( 0.0000,  0.0000,  0.0000)
  44 Cu     5.790284    5.740371   11.826573    ( 0.0000,  0.0000,  0.0000)
  45 Cu     7.115409    4.450638   13.698320    ( 0.0000,  0.0000,  0.0000)
  46 Cu     7.111993    7.067752   13.689826    ( 0.0000,  0.0000,  0.0000)
  47 Cu     5.806194    5.757852   15.551058    ( 0.0000,  0.0000,  0.0000)
  48 Cu     7.116689    4.449777   17.404260    ( 0.0000,  0.0000,  0.0000)
  49 Cu     7.119110    7.076103   17.395949    ( 0.0000,  0.0000,  0.0000)
  50 Cu     5.839650    5.752596   19.206190    ( 0.0000,  0.0000,  0.0000)
  51 Cu     4.502840    7.106124   10.040718    ( 0.0000,  0.0000,  0.0000)
  52 Cu     4.505854    7.072213   13.694900    ( 0.0000,  0.0000,  0.0000)
  53 Cu     4.482985    7.045347   17.423899    ( 0.0000,  0.0000,  0.0000)
  54 Cl     3.111134    4.453599   21.202893    ( 0.0000,  0.0000,  0.0000)
  55 Cl     4.580310    3.143724    8.048163    ( 0.0000,  0.0000,  0.0000)
  56 Cl     1.867046    5.767436    8.237027    ( 0.0000,  0.0000,  0.0000)
  57 Cl     0.561128    1.853895   21.006449    ( 0.0000,  0.0000,  0.0000)
  58 Cl     5.840224    7.039810   21.008038    ( 0.0000,  0.0000,  0.0000)
  59 Cl     7.093286    0.367959    8.057112    ( 0.0000,  0.0000,  0.0000)
  60 Cl     7.130126    5.740935    8.244573    ( 0.0000,  0.0000,  0.0000)
  61 Cl     5.824339    1.826908   21.013856    ( 0.0000,  0.0000,  0.0000)
  62 Cl     0.561128    7.353895   21.006449    ( 0.0000,  0.0000,  0.0000)
  63 Cl     1.699919    0.405738    8.070012    ( 0.0000,  0.0000,  0.0000)

Unit cell:
           periodic     x           y           z      points  spacing
  1. axis:    yes    7.851007    0.000000    0.000000    45     0.1655
  2. axis:    yes    2.617002    7.851007    0.000000    48     0.1636
  3. axis:    yes    0.000000    0.000000   30.683867   175     0.1753

  Lengths:   7.851007   8.275688  30.683867
  Angles:   90.000000  90.000000  71.565053

Effective grid spacing dv^(1/3) = 0.1710

     iter     time        total  log10-change:
                         energy  eigst   dens
[...]
 11 Cu    0.21997    0.73799   -0.21526
 12 Cu   -0.20808    0.04862   -0.45094
 13 Cu   -0.05162   -0.09173    0.07492
 14 Cu   -0.01781    0.00332    0.05722
 15 Cu   -0.01138   -0.00027   -0.02631
 16 Cu   -0.04989   -0.04707   -0.36812
 17 Cu    0.06927    0.66848   -2.67343
 18 Cu    0.00715    0.21235   -0.21393
 19 Cu   -0.01842   -0.25541   -0.18867
 20 Cu   -0.09020   -0.02252   -0.05806
 21 Cu    0.09290    0.02562   -0.03901
 22 Cu    0.01093    0.02794    0.06692
 23 Cu   -0.02198   -0.02289   -0.00328
 24 Cu    0.01932    0.02856   -0.00719
 25 Cu   -0.01124    0.00381   -0.01239
 26 Cu   -0.05013   -0.08822   -0.14993
 27 Cu    0.09479    0.02735    0.04385
 28 Cu    0.01234    0.23686    0.16248
 29 Cu   -0.25627    0.59605   -0.14558
 30 Cu    0.26439   -0.55942    0.05126
 31 Cu   -0.00566    0.34480    0.83342
 32 Cu    0.04637    0.04599    0.35499
 33 Cu    0.05236    0.08632    0.14413
 34 Cu    0.00897   -0.00351   -0.00395
 35 Cu    0.01010    0.00466    0.03867
 36 Cu    0.01866   -0.00035   -0.04515
 37 Cu   -0.01725   -0.03325   -0.06224
 38 Cu   -0.09459   -0.01458    0.03920
 39 Cu    0.08508    0.08357   -0.11199
 40 Cu    0.21551   -0.19720    0.27844
 41 Cu   -0.02201   -0.25162    0.17162
 42 Cu   -0.22506   -0.69451    0.20023
 43 Cu   -0.20823    0.60222    0.17159
 44 Cu   -0.11275    0.06696    0.16542
 45 Cu    0.00749    0.02181    0.04334
 46 Cu   -0.00938   -0.01873    0.03031
 47 Cu   -0.00102    0.01754   -0.00466
 48 Cu    0.00267    0.01746    0.05833
 49 Cu    0.03810    0.02835   -0.33013
 50 Cu   -0.17659   -0.70832   -0.17980
 51 Cu    0.22361   -0.19450   -0.18406
 52 Cu   -0.00211    0.00706    0.02252
 53 Cu   -0.12773    0.06124   -0.17972
 54 Cl    0.00486    0.06885   -0.41592
 55 Cl   -0.07693   -0.09549    0.45785
 56 Cl    2.71209   -3.71105   -0.60520
 57 Cl    2.74784    0.00903    0.75596
 58 Cl   -2.69983   -0.34402    0.77047
 59 Cl   -3.17598    3.79445   -0.22941
 60 Cl   -2.71993   -0.03237   -0.72627
 61 Cl   -2.71959    4.63955    1.06824
 62 Cl    2.65371   -5.41826    1.99299
 63 Cl    3.25327    0.33629    0.40970

System changes: positions

[...]

Density initialized from wave functions

[...]

                Cl
        Cl Cu    Cu  Cl Cu
               Cu    Cu     Cu
         Cu    Cu     Cu
             Cu    Cu     Cu
       Cu     Cu    Cu
           Cu    CCu    Cu
         Cu    Cu    CCu    Cu

       Cu    CCu    Cu    Cu
           Cu    CCu    Cu
               Cu    Cu     Cu
         Cu     Cu    Cu
             Cu     Cu    Cu
       Cu     Cu    Cu
           Cu Cl  Cu    Cu Cl
                   Cl

[...]

            Cl          Cl
                Cl

         ClCu    Cu  Cl Cu
               Cu    Cu     Cu
         Cu    Cu     Cu
             Cu     Cu    Cu
       Cu     Cu    Cu
           Cu    CCu    Cu
         Cu    Cu    CCu    Cu

       Cu    CCu    Cu    Cu
           Cu    CCu    Cu
               Cu    Cu     Cu
         Cu     Cu    Cu
       Cu    Cu     Cu    Cu
              Cu    Cu
           Cu Cl  Cu    CuCl
                   Cl

[...]

                Cl
         ClCu    Cu  Cl Cu
               Cu    Cu     Cu
         Cu    Cu     Cu
       Cu    CCu    Cu    Cu

           Cu    CCu    Cu
         Cu    Cu    CCu    Cu

       Cu    CCu    Cu    Cu
           Cu    CCu    Cu
                            Cu
         Cu    Cu    CCu
             Cu     Cu    Cu
       Cu     Cu    Cu
           Cu Cl  Cu    CuCl
                   Cl

[...]

            Cl         Cl
                Cl
                    Cl
         Clu     Cu    Cu
         Cu   CCu   CuCu   Cu

       Cu    CCu   CCu   Cu
          CCu   CCu    CCu

         Cu   CCu   CCu    Cu
       Cu    CCu   CCu   Cu

          CCu    CCu   CCu
         Cu   CCu   CCu    Cu

       Cu   CuCu   CCu   Cu
           Cu    Cu     Cul
              Cl
                  Cl
           Cl         Cl

[...]

          CCu    Cu    CCu
         Cu   CCu   CCu    Cu

[...]

            Cl         Cl
                Cl
                    Cl
         Clu     Cu    Cu
         Cu   CCu   CuCu   Cu

[...]

          CCu    CCu   CCu
         Cu   CCu   CCu    Cu

       Cu   CuCu   CCu   Cu
           Cu    Cu     Cul
              Cl
                  Cl
           Cl         Cl

[...]

                Cl
         ClCu    Cu Cl  Cu
               Cu    Cu     Cu
         Cu     Cu    Cu
       Cu    CCu   CCu    Cu

[...]

       Cu    CCu    Cu    Cu
           Cu    CCu    Cu

         Cu    Cu    CCu    Cu
             Cu    Cu     Cu
       Cu     Cu    Cu
           Cu  Cl Cu    CuCl
                   Cl

[...]

       Cu    CCu    Cu    Cu
           Cu    CCu    Cu

[...]

                Cl
         ClCu    Cu Cl  Cu
               Cu    Cu     Cu
         Cu     Cu    Cu
       Cu    CCu    Cu    Cu

[...]

                Cl
         ClCu    Cu Cl  Cu
               Cu    Cu     Cu
         Cu     Cu    Cu
       Cu    CCu   CCu    Cu

[...]

                Cl
         ClCu    CuCl   Cu
               Cu    Cu     Cu
         Cu     Cu    Cu
       Cu    CCu   CCu    Cu

[...]

       Cu    CCu   CCu    Cu
           Cu    CCu   CCu

         Cu    Cu    CCu    Cu
             Cu    Cu     Cu
       Cu     Cu    Cu
           Cu  Cl Cu    CuCl
                   Cl

[...]

       Cu    CCu   CCu    Cu
           Cu    CCu   CCu
               Cu
         Cu    Cu    CCu    Cu
             Cu    Cu     Cu
       Cu     Cu    Cu
            Cu Cl Cu    CuCl
                  Cl

[...]

         ClCu    Cu    Cu
               Cu  ClCu    Cu
         Cu     Cu    Cu
       Cu    CCu   Cu     Cu
                    Cu
           Cu    CCu   CCu
         Cu    Cu    CCu   Cu

       Cu    CCu   CCu    Cu
           Cu    CCu   CCu
               Cu
         Cu    Cu    CCu    Cu
             Cu    Cu     Cu
       Cu     CuCl  Cu
            Cu    Cu    CuCl
                  Cl

[...]

                Cl
         ClCu    CuCl  Cu
               Cu    Cu     Cu
         Cu     Cu    Cu
       Cu    CCu   CCu    Cu

           Cu    CCu    Cu
         Cu    Cu    CCu    Cu

       Cu    CCu   CCu    Cu
           Cu    CCu   CCu
               Cu
         Cu    Cu    CCu    Cu
             Cu    Cu     Cu
       Cu     Cu    Cu
            Cu  ClCu    CuCl
                  Cl

[...]

         ClCu    CuCl  Cu
               Cu    Cu     Cu
         Cu     Cu    Cu
       Cu    CCu   Cu     Cu
                    Cu
           Cu    CCu   CCu
         Cu    Cu    CCu    Cu

       Cu    CCu   CCu    Cu
           Cu    CCu   CCu
               Cu
         Cu    Cu    CCu    Cu
             Cu    Cu     Cu
       Cu     Cu    Cu
            Cu  ClCu    CuCl
                  Cl

           Cl        Cl

[...]

        ClCu    Cu Cl  Cu
         Cu   CCu   CuCu   Cu

       Cu    Cu    CCu   Cu
          CCu   CCu    CCu

[...]

       Cu   CuCu   CCu   Cu
           Cu  Cl Cu    Cul

[...]

       Cu    Cu    CCu   Cu
          CCu   CCu    CCu

[...]

System changes: positions

Initializing position-dependent things.

Density initialized from wave functions

             Cl        Cl
                Cl

        ClCu    Cu Cl  Cu
         Cu   CCu   CuCu   Cu

       Cu    CCu   CCu   Cu
          CCu   CCu    CCu

         Cu   CCu   CCu    Cu
       Cu    CCu   CCu   Cu

          CCu    Cu    CCu
         Cu   CCu   CCu    Cu

       Cu   CuCu   CCu   Cu
           Cu  Cl Cu    Cul

                  Cl
           Cl        Cl

Positions:
   0 Cu     1.917065    1.881793   10.002168    ( 0.0000,  0.0000,  0.0000)
   1 Cu     0.608811    0.512858   11.861324    ( 0.0000,  0.0000,  0.0000)
   2 Cu     3.235858    0.514834   11.815478    ( 0.0000,  0.0000,  0.0000)
   3 Cu     1.904802    1.830991   13.694326    ( 0.0000,  0.0000,  0.0000)
   4 Cu     0.590256    0.529477   15.535107    ( 0.0000,  0.0000,  0.0000)
   5 Cu     3.192383    0.523931   15.538617    ( 0.0000,  0.0000,  0.0000)
   6 Cu     1.928836    1.827585   17.420846    ( 0.0000,  0.0000,  0.0000)
   7 Cu     0.579577    0.533294   19.311270    ( 0.0000,  0.0000,  0.0000)
   8 Cu     3.178600    0.532690   19.307144    ( 0.0000,  0.0000,  0.0000)
   9 Cu     0.578712    3.135981   11.845355    ( 0.0000,  0.0000,  0.0000)
  10 Cu     0.594460    3.139842   15.526754    ( 0.0000,  0.0000,  0.0000)
  11 Cu     0.623127    3.190947   19.216538    ( 0.0000,  0.0000,  0.0000)
  12 Cu     7.204292    1.873659   10.041509    ( 0.0000,  0.0000,  0.0000)
  13 Cu     5.804174    0.520473   11.830279    ( 0.0000,  0.0000,  0.0000)
  14 Cu     7.121584    1.832350   13.690844    ( 0.0000,  0.0000,  0.0000)
  15 Cu     5.817882    0.522381   15.546688    ( 0.0000,  0.0000,  0.0000)
  16 Cu     7.150090    1.824083   17.363145    ( 0.0000,  0.0000,  0.0000)
  17 Cu     5.810194    0.535767   19.194749    ( 0.0000,  0.0000,  0.0000)
  18 Cu     4.531295    1.829220    9.925051    ( 0.0000,  0.0000,  0.0000)
  19 Cu     4.473891    4.458550    9.891980    ( 0.0000,  0.0000,  0.0000)
  20 Cu     3.216772    3.126018   11.826779    ( 0.0000,  0.0000,  0.0000)
  21 Cu     5.798711    3.151809   11.840091    ( 0.0000,  0.0000,  0.0000)
  22 Cu     4.516695    1.830167   13.699375    ( 0.0000,  0.0000,  0.0000)
  23 Cu     4.500824    4.453077   13.691268    ( 0.0000,  0.0000,  0.0000)
  24 Cu     3.209672    3.141452   15.543621    ( 0.0000,  0.0000,  0.0000)
  25 Cu     5.814371    3.144251   15.548337    ( 0.0000,  0.0000,  0.0000)
  26 Cu     4.491903    1.832982   17.404270    ( 0.0000,  0.0000,  0.0000)
  27 Cu     4.494987    4.468815   17.402133    ( 0.0000,  0.0000,  0.0000)
  28 Cu     3.238796    3.142789   19.327951    ( 0.0000,  0.0000,  0.0000)
  29 Cu     5.908722    3.190486   19.180219    ( 0.0000,  0.0000,  0.0000)
  30 Cu     1.810508    4.405782   10.055391    ( 0.0000,  0.0000,  0.0000)
  31 Cu     1.906609    7.056189   10.044188    ( 0.0000,  0.0000,  0.0000)
  32 Cu     0.560518    5.768663   11.874615    ( 0.0000,  0.0000,  0.0000)
  33 Cu     3.220443    5.760893   11.827624    ( 0.0000,  0.0000,  0.0000)
  34 Cu     1.897567    4.447238   13.685707    ( 0.0000,  0.0000,  0.0000)
  35 Cu     1.890875    7.069659   13.687148    ( 0.0000,  0.0000,  0.0000)
  36 Cu     0.589772    5.760743   15.544170    ( 0.0000,  0.0000,  0.0000)
  37 Cu     3.190556    5.764426   15.535927    ( 0.0000,  0.0000,  0.0000)
  38 Cu     1.912332    4.442436   17.397546    ( 0.0000,  0.0000,  0.0000)
  39 Cu     1.905335    7.074729   17.411913    ( 0.0000,  0.0000,  0.0000)
  40 Cu     0.507578    5.717846   19.190274    ( 0.0000,  0.0000,  0.0000)
  41 Cu     3.173205    5.774141   19.326264    ( 0.0000,  0.0000,  0.0000)
  42 Cu     7.097377    4.402466   10.030862    ( 0.0000,  0.0000,  0.0000)
  43 Cu     7.127929    7.067174    9.936766    ( 0.0000,  0.0000,  0.0000)
  44 Cu     5.777498    5.771337   11.809192    ( 0.0000,  0.0000,  0.0000)
  45 Cu     7.114563    4.454848   13.708907    ( 0.0000,  0.0000,  0.0000)
  46 Cu     7.116856    7.063166   13.698794    ( 0.0000,  0.0000,  0.0000)
  47 Cu     5.804033    5.763476   15.540973    ( 0.0000,  0.0000,  0.0000)
  48 Cu     7.131817    4.456322   17.387941    ( 0.0000,  0.0000,  0.0000)
  49 Cu     7.099622    7.079617   17.370993    ( 0.0000,  0.0000,  0.0000)
  50 Cu     5.794842    5.715114   19.225406    ( 0.0000,  0.0000,  0.0000)
  51 Cu     4.528001    7.067960    9.918167    ( 0.0000,  0.0000,  0.0000)
  52 Cu     4.515370    7.068504   13.698467    ( 0.0000,  0.0000,  0.0000)
  53 Cu     4.465874    7.081950   17.424574    ( 0.0000,  0.0000,  0.0000)
  54 Cl     3.145758    4.464702   21.221331    ( 0.0000,  0.0000,  0.0000)
  55 Cl     4.389018    3.114480    8.017267    ( 0.0000,  0.0000,  0.0000)
  56 Cl     2.582495    5.625370    8.296615    ( 0.0000,  0.0000,  0.0000)
  57 Cl     0.729254    1.981242   21.124428    ( 0.0000,  0.0000,  0.0000)
  58 Cl     5.589444    6.940532   21.116428    ( 0.0000,  0.0000,  0.0000)
  59 Cl     6.234885    0.629248    8.368602    ( 0.0000,  0.0000,  0.0000)
  60 Cl     6.813478    5.612629    8.138915    ( 0.0000,  0.0000,  0.0000)
  61 Cl     4.989087    1.981597   20.892436    ( 0.0000,  0.0000,  0.0000)
  62 Cl     1.329025    6.965399   20.913387    ( 0.0000,  0.0000,  0.0000)
  63 Cl     1.943909    0.659803    8.102577    ( 0.0000,  0.0000,  0.0000)

Unit cell:
           periodic     x           y           z      points  spacing
  1. axis:    yes    7.851007    0.000000    0.000000    45     0.1655
  2. axis:    yes    2.617002    7.851007    0.000000    48     0.1636
  3. axis:    yes    0.000000    0.000000   30.683867   175     0.1753

  Lengths:   7.851007   8.275688  30.683867
  Angles:   90.000000  90.000000  71.565053

Effective grid spacing dv^(1/3) = 0.1710

     iter     time        total  log10-change:
                         energy  eigst   dens
iter:   1 20:27:29 -4456.163364  -3.51
iter:   2 20:28:23 -4456.170110  -4.06  -3.03
iter:   3 20:29:18 -4456.135073c -4.71  -3.00
iter:   4 20:30:13 -4456.132922c -4.74  -3.42
iter:   5 20:31:07 -4456.132709c -5.76  -3.77
iter:   6 20:32:02 -4456.132425c -5.56  -3.86
iter:   7 20:32:57 -4456.132376c -6.51  -4.00c
iter:   8 20:33:51 -4456.132371c -6.12  -4.15c
iter:   9 20:34:45 -4456.132343c -7.38  -4.44c
iter:  10 20:35:39 -4456.132305c -6.55  -4.49c
iter:  11 20:36:35 -4456.132303c -7.63c -4.64c

Converged after 11 iterations.

Dipole moment: (-23.222454, -35.331859, -0.003848) |e|*Ang

Energy contributions relative to reference atoms: (reference = -2556707.893378)

Kinetic:       +498.653719
Potential:     -529.740195
External:        +0.000000
XC:            -4424.044641
Entropy (-ST):   -0.572625
Local:           -0.714874
Free energy:   -4456.418616
Extrapolated:  -4456.132303

Showing only first 2 kpts
 Kpt  Band  Eigenvalues  Occupancy
  0   330     -0.97252    1.97616
  0   331     -0.71722    1.73163
  0   332     -0.66092    1.57216
  0   333     -0.49518    0.82389

  1   330     -0.73413    1.76855
  1   331     -0.69023    1.66252
  1   332     -0.55627    1.12682
  1   333     -0.36546    0.32137

Fermi level: -0.53077

No gap

Forces in eV/Ang:
  0 Cu   -0.00610    0.00109    0.00898
  1 Cu   -0.00221   -0.00044    0.00784
  2 Cu   -0.00378    0.00575    0.00081
  3 Cu    0.00288    0.00669   -0.00624
  4 Cu    0.00810    0.00705   -0.00875
  5 Cu   -0.00622   -0.00361   -0.00489
  6 Cu   -0.00270    0.00318   -0.00263
  7 Cu    0.00492    0.00107    0.00384
  8 Cu    0.00457   -0.00199    0.00491
  9 Cu    0.01028    0.00750    0.00470
 10 Cu    0.00202    0.00724   -0.00902
 11 Cu   -0.01221    0.00623   -0.00507
 12 Cu   -0.00904    0.00019   -0.00074
 13 Cu    0.00382   -0.00232   -0.00199
 14 Cu   -0.00267    0.00817    0.00203
 15 Cu   -0.00117    0.00344   -0.00582
 16 Cu   -0.00681   -0.00093   -0.00258
 17 Cu    0.00969   -0.00303   -0.01368
 18 Cu    0.00172   -0.00617    0.00312
 19 Cu    0.00751    0.01428    0.00790
 20 Cu   -0.00116    0.00632    0.00803
 21 Cu    0.00095    0.00201    0.00493
 22 Cu   -0.00333    0.00548   -0.00267
 23 Cu    0.00506   -0.00539   -0.00790
 24 Cu   -0.00543    0.00562   -0.00110
 25 Cu   -0.00041    0.00862   -0.00684
 26 Cu    0.01041   -0.00631   -0.00280
 27 Cu   -0.00206   -0.00053    0.00295
 28 Cu   -0.00871   -0.00053   -0.00450
 29 Cu   -0.00633   -0.00298    0.00277
 30 Cu    0.00716   -0.00327   -0.00587
 31 Cu   -0.00071    0.00494   -0.00176
 32 Cu    0.00624   -0.00429    0.00549
 33 Cu   -0.00421    0.00075    0.00259
 34 Cu   -0.00126   -0.00716   -0.00049
 35 Cu    0.00221    0.00268    0.00620
 36 Cu    0.00086   -0.00884   -0.00182
 37 Cu    0.00666   -0.00310    0.00734
 38 Cu   -0.00200    0.00080    0.00186
 39 Cu   -0.00062    0.00209   -0.00374
 40 Cu    0.00072   -0.00608   -0.00343
 41 Cu    0.00383   -0.00230    0.00375
 42 Cu    0.01168   -0.00465    0.00335
 43 Cu    0.00074   -0.00185   -0.00897
 44 Cu    0.00233   -0.01237    0.00099
 45 Cu   -0.00170   -0.00598    0.00128
 46 Cu   -0.00538   -0.00515    0.00748
 47 Cu   -0.00561   -0.00682    0.00394
 48 Cu   -0.00220   -0.00017    0.00945
 49 Cu    0.00707    0.00383   -0.00033
 50 Cu    0.00840    0.00411   -0.00882
 51 Cu    0.00192   -0.00132   -0.00526
 52 Cu    0.00431    0.00940   -0.00029
 53 Cu    0.00610   -0.00245    0.00479
 54 Cl    0.00325   -0.00040    0.00718
 55 Cl    0.00632   -0.01399   -0.01762
 56 Cl   -0.00178   -0.00726   -0.01054
 57 Cl   -0.01225   -0.00542   -0.00491
 58 Cl    0.00555    0.01042   -0.00788
 59 Cl   -0.01269    0.01978   -0.00365
 60 Cl   -0.01973    0.00526   -0.00131
 61 Cl    0.01281   -0.00500    0.00663
 62 Cl    0.00292    0.00316    0.01926
 63 Cl   -0.01113   -0.01254   -0.01112